$molecule
 0 1
 O      1.1651210319     -1.0156620614      0.1060581328
 O     -2.0099024094     -0.5431235435      0.1449797691
 O     -0.7016769202      1.3168994372     -0.2807582959
 C     -1.3394610284      0.3732661903     -0.0656810520
 C      2.0875674222     -0.2771075035     -0.1008847777
 H      1.9321972037      0.7986800646     -0.3036987307
 H      3.1316928278     -0.6425729246     -0.0972790083
$end

$rem
   job_type = freq
   basis = 6-311++g*
   max_scf_cycles = 200
   gen_scfman = true
   scf_algorithm = gdm
   method = wb97xd
   geom_opt_max_cycles = 200
$end
