$molecule
 0 1
 O      1.0773961049      0.7064573577      0.0000024139
 O     -1.0773962974      0.7064572800      0.0000009521
 O     -0.0000002780     -1.2750287894      0.0000021094
 C      0.0000001519     -0.0718023607     -0.0000191064
 C      2.3249496549      0.0149527341      0.0000035986
 H      2.4174592888     -0.6088991431      0.8899285542
 H      3.0855755979      0.7920058917     -0.0000359976
$end

$rem
   job_type = opt
   basis = 6-311++g*
   max_scf_cycles = 200
   gen_scfman = true
   scf_algorithm = gdm
   method = wb97xd
   geom_opt_max_cycles = 200
$end
