ALGO = Exact
CSHIFT = 0.1
EDIFF = 1e-08
EDIFFG = -0.05
ENCUT = 520
IBRION = -1
ISIF = 3
ISMEAR = -5
ISPIN = 2
LASPH = True
LOPTICS = True
LORBIT = 11
LREAL = Auto
LWAVE = True
MAGMOM = 9*0.6
NBANDS = 200
NEDOS = 8000
NELM = 100
NSW = 0
PREC = Accurate
SIGMA = 0.05
