ALGO = Fast
EDIFF = 0.0001
ENCUT = 520
IBRION = 2
ISIF = 3
ISMEAR = 0
ISPIN = 2
KPAR = 1
LASPH = True
LCHARG = False
LORBIT = 11
LREAL = Auto
LWAVE = False
MAGMOM = 2*0.6
NCORE = 8
NELM = 100
NSW = 99
PREC = Accurate
SIGMA = 0.20
