Si2                                     
    1.000000000000000     
     3.5955661429273054   -0.0000000000000002    2.0759013720700468
     1.1985220476424352    3.3899309303295633    2.0759013720700468
     0.0000000000000001   -0.0000000000000002    4.1518027441400935
   Si
     2
Direct
  0.8750000000000000  0.8750000000000000  0.8750000000000000
  0.1250000000000000  0.1250000000000000  0.1250000000000000
 
  0.00000000E+00 -0.00000000E+00 -0.00000000E+00
  0.00000000E+00 -0.00000000E+00 -0.00000000E+00
