ALGO = Fast
EDIFF = 0.000001
EDIFFG = -0.001
ENCUT = 520
IBRION = 2
ISIF = 3
ISMEAR = -5
ISPIN = 2
LASPH = True
LORBIT = 11
LREAL = Auto
LWAVE = False
MAGMOM = 2*0.6
NELMDL = -5
NELM = 10
NSW = 6
PREC = Accurate
SIGMA = 0.05
