Na4Cl4
1.0
      5.6946251       0.0000000       0.0000000
      0.0000000       5.6946251       0.0000000
      0.0000000       0.0000000       5.6946251
  Na    Cl  
  4     4   
Direct
      0.5000000       0.0000000       0.5000000
      0.0000000       0.5000000       0.5000000
      0.5000000       0.5000000       0.0000000
      0.0000000       0.0000000       0.0000000
      0.5000000       0.5000000       0.5000000
      0.0000000       0.0000000       0.5000000
      0.5000000       0.0000000       0.0000000
      0.0000000       0.5000000       0.0000000
