$molecule
 0 1
 S     -0.4432159642     -0.8532426660     -0.8644599725
 O     -1.0145514798      0.7372347905     -0.5781540826
 O     -1.2700661731     -1.8503033148     -0.2399328041
 C      0.9600729209      1.2593987284      0.6789771253
 F      1.9920330810      0.5458848636      1.1271969979
 N      0.0840370831      0.3971691788      0.2119179246
$end

$rem
   job_type = opt
   basis = 6-311++g*
   max_scf_cycles = 200
   gen_scfman = true
   scf_algorithm = gdm
   method = wb97xd
   geom_opt_max_cycles = 200
$end
