$molecule
 0 1
 S     -1.1408748192      0.8527464235     -0.0736155869
 O     -1.6237636360      1.8516556037     -1.0049437043
 O     -0.9033934562      1.2359696697      1.3038265288
 C     -2.5517437760     -0.3740075232      0.0238755927
 F     -3.6088940040      0.2018451156      0.6082322384
 N     -0.0000306574      0.0000138173     -0.7905593654
$end

$rem
   job_type = opt
   basis = 6-311++g*
   max_scf_cycles = 200
   gen_scfman = true
   scf_algorithm = gdm
   method = wb97xd
   geom_opt_max_cycles = 200
$end
