Fe2 O2
1.0
-2.659783 0.000000 -1.529434
0.929318 2.561842 1.461340
2.659783 0.000000 -4.625534
Fe O
2 2
direct
0.000000 0.000000 0.000000 Fe
0.500000 0.000000 0.500000 Fe
0.227931 0.455862 0.748548 O
0.772069 0.544138 0.251452 O
