ADDGRID = True
ALGO = Fast
EDIFF = -1e-10
EDIFFG = -0.002
ENCUT = 980
FNMIN = 3
FTIMEMAX = 0.1
IBRION = 3
IOPT = 7
ISIF = 3
ISMEAR = -5
ISTART = 0
ISYM = 0
LCHARG = False
LREAL = True
LWAVE = False
MAXMOVE = 0.02
NELMIN = 10
NPAR = 4
NSW = 100
POTIM = 0.0
PREC = Accurate
SIGMA = 0.01
TIMESTEP = 0.01
