$molecule
 1 1
 O      3.6455655602     -2.6896774726      0.0000000000
 C      3.3292335956     -1.3920109952      0.0000000000
 O      4.1213856625     -0.4831894401      0.0000000000
 O      2.0062123125     -1.2798036573      0.0000000000
 O     -0.5062123124      1.2798036575      0.0000000000
 C     -1.8292335956      1.3920109951      0.0000000000
 O     -2.1455655605      2.6896774724      0.0000000000
 C     -0.0039292894     -0.0675705565      0.0000000000
 C      1.5039292894      0.0675705567      0.0000000000
 H     -3.1121811367      2.7513639680      0.0000000000
 H     -0.3539808425     -0.5912434211     -0.8919878498
 H     -0.3539808425     -0.5912434211      0.8919878499
 H      1.8539808425      0.5912434213      0.8919878499
 H      1.8539808425      0.5912434213     -0.8919878499
$end

$rem
   job_type = opt
   basis = def2-tzvppd
   max_scf_cycles = 200
   gen_scfman = true
   xc_grid = 3
   scf_algorithm = diis
   resp_charges = true
   symmetry = false
   sym_ignore = true
   method = wb97xv
   geom_opt_max_cycles = 100
   solvent_method = smd
   ideriv = 1
   thresh = 14
$end

$smx
   solvent other
$end
