$molecule
 1 1
 O      4.1932969276     -3.1450207386      0.1280169902
 C      4.3886711441     -2.0024991258      0.1260760067
 O      4.6192463920     -0.8658121206      0.1263661253
 O      1.6453877717     -1.2940751415     -0.0635510143
 O     -0.8296819042      2.5306464341     -0.1213563397
 C     -1.9182583805      2.7736990815      0.0111543686
 O     -3.0656862890      3.1534125085      0.1631052179
 C      0.3090893533     -0.7883258830     -0.0896524105
 C      1.4530724132      0.1210160469     -0.0835129566
 H     -3.7807485071      2.4530710654      0.1654423743
 H     -0.2280838223     -0.9660215126     -1.0180008594
 H     -0.2553886166     -0.9435307594      0.8265019503
 H      1.7252112214      0.6320828704      0.8367779302
 H      1.7530768217      0.6095318033     -1.0073673855
$end

$rem
   job_type = opt
   basis = def2-tzvppd
   max_scf_cycles = 200
   gen_scfman = true
   xc_grid = 3
   scf_algorithm = diis
   resp_charges = true
   symmetry = false
   sym_ignore = true
   method = wb97xv
   geom_opt_max_cycles = 100
   solvent_method = smd
   ideriv = 1
   thresh = 14
   geom_opt_hessian = read
   scf_guess_always = True
$end

$smx
   solvent other
$end
