$molecule
 1 1
 O      4.0308545510     -3.3111820198      0.0000000000
 C      4.4033231973     -2.2134032886      0.0000000000
 O      4.8145626186     -1.1289968426      0.0000000000
 O      1.8250110644     -1.1486100613      0.0000000000
 O     -1.0138466844      2.4981699776      0.0000000000
 C     -2.1003963841      2.7824822079      0.0000000000
 O     -3.2415039747      3.2080745857      0.0000000000
 C      0.4486516377     -0.7660772933      0.0000000000
 C      1.5052553249      0.2434454047      0.0000000000
 H     -3.9807628519      2.5332791753      0.0000000000
 H     -0.0845465613     -0.9818796859     -0.9224256779
 H     -0.0845465708     -0.9818796525      0.9224256828
 H      1.7435745597      0.7673760133      0.9224268510
 H      1.7435745990      0.7673760080     -0.9224268584
$end

$rem
   job_type = opt
   basis = def2-tzvppd
   max_scf_cycles = 200
   gen_scfman = true
   xc_grid = 3
   scf_algorithm = diis
   resp_charges = true
   symmetry = false
   sym_ignore = true
   method = wb97xv
   geom_opt_max_cycles = 100
   solvent_method = smd
   ideriv = 1
   thresh = 14
   geom_opt_hessian = read
   scf_guess_always = True
$end

$smx
   solvent other
$end
