%Mem=14000MB
%NProcShared=8
%chk=ferrocene_631G0.chk
#P B3LYP/6-31G Freq Guess=TCheck Opt=CalcFC SCRF=(SMD,Solvent=acetonitrile) Test Test

Fe1 H10 C10

0 1
C
C 1 B1
C 2 B2 1 A2
C 3 B3 1 A3 2 D3
C 4 B4 1 A4 3 D4
H 5 B5 4 A5 1 D5
H 3 B6 4 A6 2 D6
H 4 B7 5 A7 3 D7
H 1 B8 2 A8 5 D8
H 2 B9 1 A9 3 D9
C 1 B10 2 A10 9 D10
C 11 B11 2 A11 3 D11
C 12 B12 11 A12 3 D12
C 13 B13 12 A13 11 D13
C 14 B14 11 A14 13 D14
H 15 B15 14 A15 11 D15
H 13 B16 14 A16 12 D16
H 14 B17 13 A17 15 D17
H 11 B18 12 A18 15 D18
H 12 B19 11 A19 13 D19
Fe 14 B20 4 A20 5 D20

B1=1.444921
B2=1.456148
A2=107.748336
B3=1.443864
A3=72.375017
D3=179.855537
B4=1.443857
A4=36.014205
D4=-179.825851
B5=1.078528
A5=125.855600
D5=-179.556095
B6=1.078447
A6=125.908149
D6=179.568443
B7=1.080970
A7=126.077257
D7=179.963857
B8=1.080866
A8=126.036949
D8=179.618516
B9=1.081139
A9=126.099212
D9=-179.815023
B10=3.419277
A10=83.728251
D10=87.703382
B11=1.445059
A11=72.454720
D11=-53.447707
B12=1.456179
A12=107.776844
D12=73.459864
B13=1.443971
A13=108.324247
D13=0.026199
B14=1.443951
A14=36.005020
D14=179.897790
B15=1.078453
A15=125.907184
D15=179.735931
B16=1.078490
A16=125.837005
D16=-179.745875
B17=1.080935
A17=126.076558
D17=179.434453
B18=1.081152
A18=126.095754
D18=-179.828509
B19=1.080897
A19=126.033570
D19=179.615108
B20=2.082518
A20=35.541301
D20=63.383089



