$molecule
 0 1
 O      1.2446400000     -0.0015400000     -1.2892900000
 C      1.6777000000      1.0775500000     -0.5969000000
 C      1.6787900000     -1.0803800000     -0.5973800000
 C      2.7840000000      0.6822800000      0.1925400000
 C      2.7845900000     -0.6840800000      0.1924500000
 H      1.4125600000      2.0475500000     -0.9736500000
 H      1.4134900000     -2.0499400000     -0.9747100000
 H      3.4612900000      1.3523800000      0.7155700000
 H      3.4626800000     -1.3529000000      0.7157500000
 C     -1.2007700000      1.1447000000      0.1610500000
 N     -1.8870000000      0.0020300000     -0.2160300000
 C      0.0288100000      0.6942300000      0.8767600000
 O     -1.5920200000      2.2973600000     -0.0457400000
 C     -1.2106000000     -1.1703600000      0.1555300000
 C      0.0283700000     -0.6962300000      0.8761800000
 O     -1.5877500000     -2.2769000000     -0.0443000000
 H     -2.7697000000      0.0002300000     -0.6866300000
 H      0.4617200000      1.3374800000      1.6306700000
 H      0.4606900000     -1.3421500000      1.6296800000
$end

$rem
   job_type = ts
   basis = 6-31g*
   max_scf_cycles = 200
   gen_scfman = true
   xc_grid = 3
   scf_algorithm = diis_gdm
   resp_charges = true
   symmetry = false
   sym_ignore = true
   method = wb97xd
   geom_opt_max_cycles = 200
$end
