$molecule
 -1 3
 S      0.5670248082     -1.2948610250      0.1211237592
 C      0.9636854592      2.0831990202      0.7361229839
 N      0.2070747303     -0.2108615468     -1.0708231633
 O     -0.3328856576     -1.1531954440      1.3232157136
 F      1.1691954383      2.9551125737     -0.2310364416
 F     -0.0356585537      2.4654051530      1.5088935520
 F      2.0643451931      1.9070134683      1.4480488548
 S     -1.0604538682     -0.3364809037     -2.0085108071
 C     -2.3087132385      0.8574946127     -1.2888203822
 O     -0.7827800101      0.2488489050     -3.3133860274
 O     -1.7548661415     -1.6216265791     -1.9718652748
 F     -1.8149126720      2.0941771981     -1.2493976565
 F     -3.4079776600      0.8714441722     -2.0471743261
 F     -2.6567471810      0.5037809051     -0.0556700873
$end

$rem
   job_type = freq
   basis = 6-311++g*
   max_scf_cycles = 200
   gen_scfman = true
   scf_algorithm = gdm
   method = wb97xd
   geom_opt_max_cycles = 200
   solvent_method = pcm
$end

$pcm
   heavypoints 194
   hpoints 194
   radii uff
   theory cpcm
   vdwscale 1.1
$end

$solvent
   dielectric 7.0
$end
