$molecule
 -1 3
 S      0.5675611574     -1.3475765573      0.1312716934
 C      0.7701730589      2.0888113389      0.6398327433
 N      0.2560170200     -0.2405454084     -1.0572952662
 O     -0.2903064432     -1.1303445669      1.3525797043
 F      1.0182902806      3.0260396445     -0.2574598841
 F     -0.0761990699      2.5442845377      1.5599466057
 F      1.9050417118      1.6655458276      1.2035752319
 S     -1.0182603795     -0.3216800365     -1.9909749540
 C     -2.2468857956      0.8843459502     -1.2576965280
 O     -0.7289341749      0.2781698432     -3.2864409650
 O     -1.7386663789     -1.5923193278     -1.9665817703
 F     -1.7396022645      2.1158543504     -1.2217577501
 F     -3.3521150670      0.9109902149     -2.0064341160
 F     -2.5886481186      0.5333078605     -0.0215663877
$end

$rem
   job_type = opt
   basis = 6-311++g*
   max_scf_cycles = 200
   gen_scfman = true
   scf_algorithm = gdm
   method = wb97xd
   geom_opt_max_cycles = 200
   solvent_method = pcm
$end

$pcm
   heavypoints 194
   hpoints 194
   radii uff
   theory cpcm
   vdwscale 1.1
$end

$solvent
   dielectric 7.0
$end
