$molecule
 -1 3
 S      0.5718473046     -1.2644252997      0.0746945490
 C      1.0607738455      2.1068131575      0.8489967313
 N      0.1762946802     -0.2251152782     -1.1455899004
 O     -0.3040221146     -1.0926264707      1.2908591833
 F      1.2154530562      2.9771775653     -0.1305899241
 F      0.0018088109      2.4234151839      1.5848062601
 F      2.1656394674      2.0332972656      1.5996152421
 S     -1.1134128495     -0.3808288691     -2.0492665572
 C     -2.3360376594      0.8440561656     -1.3365616382
 O     -0.8678053473      0.1564432600     -3.3824506644
 O     -1.8132453419     -1.6617549140     -1.9554377873
 F     -1.8321830461      2.0781362542     -1.3460560217
 F     -3.4541253726      0.8449835465     -2.0672974076
 F     -2.6546547870      0.5298789427     -0.0850013677
$end

$rem
   job_type = opt
   basis = 6-311++g*
   max_scf_cycles = 200
   gen_scfman = true
   scf_algorithm = gdm
   method = wb97xd
   geom_opt_max_cycles = 200
   solvent_method = pcm
$end

$pcm
   heavypoints 194
   hpoints 194
   radii uff
   theory cpcm
   vdwscale 1.1
$end

$solvent
   dielectric 7.0
$end
