$molecule
 -1 3
 S      1.1812589400      0.0284659655     -0.2257599167
 C      0.8381439658      1.3650430389      1.0375211008
 N      0.1158897263      0.2782044761     -1.3748246478
 O      1.0289299672     -1.2154285945      0.5081315276
 F      0.9027443368      2.5668017889      0.4723941338
 F     -0.3663306259      1.2119451489      1.5759670235
 F      1.7498406878      1.3008149178      2.0058779479
 S     -1.3612425600     -0.3218530804     -1.4550439110
 C     -2.2822043118      1.2452916869     -1.8851713164
 O     -1.5214692537     -1.1642463147     -2.6265991458
 O     -1.9477965631     -0.7732055980     -0.2047290408
 F     -1.8301553066      1.7700227456     -3.0176576282
 F     -3.5731510080      0.9559059551     -2.0344167265
 F     -2.1575599035      2.1444049541     -0.9148298731
$end

$rem
   job_type = opt
   basis = 6-311++g*
   max_scf_cycles = 200
   gen_scfman = true
   scf_algorithm = gdm
   method = wb97xd
   geom_opt_max_cycles = 200
   solvent_method = pcm
$end

$pcm
   heavypoints 194
   hpoints 194
   radii uff
   theory cpcm
   vdwscale 1.1
$end

$solvent
   dielectric 7.0
$end
