ALGO = Fast
EDIFF = 0.0024
ENCUT = 520
IBRION = 1
ICHARG = 1
IDIPOL = 3
ISIF = 2
ISMEAR = 0
ISPIN = 2
ISYM = 0
LDIPOL = False
LMONO = False
LORBIT = 11
LREAL = Auto
LVHAR = True
LVTOT = True
LWAVE = True
MAGMOM = 16*4 32*0.6
NELM = 100
NELMIN = 8
NGX = 42
NGY = 42
NPAR = 4
NSW = 200
POTIM = 0.0703125
PREC = Accurate
SIGMA = 0.05
SYMPREC = 1e-07
