$molecule
0 1
H       0.000000     0.000000    -0.862674
F       0.000000     0.000000     0.043813
$end

$rem
job_type = opt
exchange = b3lyp
basis = 6-31+g*
geom_opt_max_cycles = 2
$end

