$comment
<SCF Fix Strategy>{
    "current_method_id": 6, 
    "methods": [
        "increase_iter", 
        "rca_diis", 
        "gwh", 
        "gdm", 
        "rca", 
        "core+rca", 
        "fon"
    ], 
    "version": 2.0
}</SCF Fix Strategy>
$end


$molecule
 0  1
 H           0.00000000        0.00000000       -0.86267400
 F           0.00000000        0.00000000        0.04381300
$end


$rem
          jobtype = opt
         exchange = b3lyp
            basis = 6-31g*
     fon_e_thresh = 6
         fon_norb = 1
        fon_t_end = 300
      fon_t_start = 300
   max_scf_cycles = 200
      occupations = 2
    scf_algorithm = diis
  scf_convergence = 7
        scf_guess = sad
           thresh = 14
$end

