$molecule
0 1
C 2.376842 -0.756048 -0.000004
C 1.137389 -1.410090 -0.000000
C -0.067356 -0.712650 0.000004
C -0.047043 0.703225 0.000004
C 1.176498 1.354761 -0.000000
C 2.379005 0.641766 -0.000004
H 1.080202 -2.494647 0.000000
H 1.195302 2.441674 -0.000000
H 3.313895 1.198239 -0.000007
C -2.339224 0.723676 0.000011
C -2.361596 -0.655327 0.000011
H -3.252122 1.307567 0.000014
H -3.293004 -1.209301 0.000014
N -1.185574 1.425116 0.000007
N -1.231316 -1.394282 0.000008
C 3.670963 -1.459185 -0.000007
C 3.859557 -2.785478 -0.000012
H 3.050184 -3.506259 -0.000013
H 4.867239 -3.190988 -0.000014
H 4.556213 -0.824536 -0.000006
$end

$rem
BASIS  =  6-31+G*
EXCHANGE  =  B3LYP
JOB_TYPE  =  Optimization
$end
