$molecule
 -1 2
 C          0.62598       -0.33426       -0.64130
 C          0.00432       -1.32250        0.37722
 H          0.89858       -0.93181       -1.52615
 C         -1.46053       -1.63063        0.04823
 H          0.58378       -2.25941        0.36787
 H          0.07046       -0.92272        1.39672
 H         -1.78991       -2.53282        0.58916
 H         -1.56390       -1.86459       -1.01978
 C         -0.38146        0.71452       -1.17198
 H          0.14167        1.64834       -1.41093
 H         -0.82807        0.35178       -2.10489
 C         -2.39622       -0.48145        0.43453
 H         -3.38681       -0.62230       -0.01916
 H         -2.52431       -0.45859        1.52430
 S         -1.74966        1.18990       -0.03475
 N          1.89226        0.30196       -0.22497
 C          2.99895       -0.63505       -0.11599
 H          3.05228       -1.26242       -1.01625
 H          3.94340       -0.07700       -0.03384
 H          2.93295       -1.30899        0.76201
 C          1.82245        1.18277        0.93354
 H          2.75550        1.76325        0.99577
 H          0.98642        1.88146        0.83291
 H          1.70068        0.64878        1.89708
$end

$rem
   BASIS  =  6-31+G*
   EXCHANGE  =  B3LYP
   JOB_TYPE  =  Frequency
   MEM_TOTAL = 2000
$end
