$molecule
 1 1
 S      3.3451183874      1.8245273605      1.4000288517
 F      3.7723706331      0.9670516925     -1.3850614933
 F      1.0971827302     -0.2240253386      2.2079552154
 F      0.6863105402     -2.4424820805      0.7569227793
 F      2.6733203720     -0.8125240270     -2.9363077784
 F      0.5760210796     -2.2980786951     -1.9492738797
 O      2.6825852190      1.8799835521      2.7065409006
 O      4.7374140381      1.3499864085      1.4256835096
 O      3.1473361937      3.0184055170      0.5592490518
 C      2.4528706803      0.5322809009      0.4714277514
 C      2.8138265702      0.2945102043     -0.8723977431
 C      1.4615117423     -0.2521730143      0.9745506952
 C      0.6373248084     -1.2178919244      0.1472020004
 C      2.2061467889     -0.6683448032     -1.7271357651
 C      1.1752104141     -1.4010565924     -1.2430161892
 O     -3.4535853179      2.5605638525     -1.8491353243
 O     -2.9208333998      0.9731395251     -3.2012056894
 N     -1.1029396488     -2.4323471743      3.2582344653
 C     -2.5727471673      0.5840080478     -0.9126312339
 C     -3.4672084742      0.2525913410      0.1230802911
 C     -1.2442902624      0.1020091738     -0.9037463255
 C     -1.7009049659     -1.0242119550      1.1851252810
 C     -3.0294622725     -0.5432842242      1.1590183070
 C     -0.8031356820     -0.7052348464      0.1228356796
 C     -3.0086967603      1.4170367166     -2.0421889927
 C     -1.3353073042     -1.8130876347      2.3027742557
 H     -4.4869413535      0.6208703432      0.0992879018
 H     -0.5980637784      0.3788088939     -1.7312999037
 H     -3.6943740788     -0.8135975288      1.9722406190
$end

$rem
   job_type = opt
   basis = def2-svpd
   max_scf_cycles = 500
   gen_scfman = true
   xc_grid = 3
   thresh = 14
   s2thresh = 16
   scf_algorithm = gdm
   resp_charges = true
   symmetry = false
   sym_ignore = true
   method = b97mv
   geom_opt_max_cycles = 200
   solvent_method = pcm
   scf_convergence = 6
   mem_total = 170000
$end

$pcm
   heavypoints 194
   hpoints 194
   radii uff
   theory cpcm
   vdwscale 1.1
$end

$solvent
   dielectric 3.0
$end

$geom_opt
   initial_hessian = model
   coordinates = delocalized
   maxiter = 200
   max_displacement = 0.1
   optimization_restart = false
$end
