start C1N1Cl1
geometry units angstroms
 C 0.0 0.0 0.0
 N 0.0 0.0 1.18313154
 Cl 2.00314780113e-16 2.00314780113e-16 -1.63569431
end

title "C1N1Cl1 dft optimize"
charge 0
basis
 C library "6-31+g*"
 N library "6-31+g*"
 Cl library "6-31+g*"
end
dft
 xc b3lyp
 mult 1
end
task dft optimize

title "C1N1Cl1 dft freq"
charge 0
basis
 C library "6-31+g*"
 N library "6-31+g*"
 Cl library "6-31+g*"
end
dft
 xc b3lyp
 mult 1
end
task dft freq

title "C1N1Cl1 dft energy"
charge 0
basis
 C library "6-311g*"
 N library "6-311g*"
 Cl library "6-311g*"
end
dft
 xc b3lyp
 mult 1
end
task dft energy

title "C1N1Cl1 dft energy"
charge 1
basis
 C library "6-311g*"
 N library "6-311g*"
 Cl library "6-311g*"
end
dft
 xc b3lyp
 mult 2
end
task dft energy

title "C1N1Cl1 dft energy"
charge -1
basis
 C library "6-311g*"
 N library "6-311g*"
 Cl library "6-311g*"
end
dft
 xc b3lyp
 mult 2
end
task dft energy
