$molecule
 -1 1
 O     -5.3617200000     -2.3973200000      0.2693800000
 H     -5.4363600000     -2.4895800000      1.2553000000
$end

$rem
   job_type = opt
   basis = def2-tzvpd
   max_scf_cycles = 100
   gen_scfman = true
   xc_grid = 3
   thresh = 14
   s2thresh = 16
   scf_algorithm = diis
   resp_charges = true
   symmetry = false
   sym_ignore = true
   method = wb97xd
   geom_opt_max_cycles = 200
   solvent_method = pcm
   geom_opt2 = 3
$end

$pcm
   heavypoints 194
   hpoints 194
   radii uff
   theory cpcm
   vdwscale 1.1
$end

$solvent
   dielectric 80
$end

$geom_opt
   maxiter = 200
$end
