ALGO = Fast
BMIX = 1 
EDIFF = 0.0002
IBRION = 0 
ICHARG = 1 
ISIF = 0 
ISMEAR = 0 
ISPIN = 1 
ISYM = 0 
KBLOCK = 100 
LCHARG = False
LORBIT = 11
LPLANE = False
LREAL = True
LSCALU = False
LWAVE = True
MAXMIX = 20
NBLOCK = 1 
NELM = 500 
NELMIN = 4 
NPAR = 6 
NSIM = 4 
NSW = 10
POTIM = 2.0 
PREC = Normal
SIGMA = 0.05
SMASS = 0 
TEBEG = 1 
TEEND = 600 
