&FORCE_EVAL 
	METHOD QS
	&SUBSYS 
		&CELL 
			A 13.397596 0.0 7.735104
			B 4.465864 12.631372 7.735104
			C 0.0 0.0 15.470208
		&END CELL
		&COORD 
			Si 0.0 0.0 3.867552 
			Si 0.0 0.0 0.0 
			Si 0.0 0.0 7.735104 
			Si 0.0 0.0 11.602656 
			Si 14.514062 3.157843 9.66888 
			Si 14.514062 3.157843 13.536432 
			Si 14.514062 3.157843 17.403984 
			Si 14.514062 3.157843 21.271535999999998 
			Si 15.630528 6.315686 11.602656 
			Si 15.630528 6.315686 15.470208 
			Si 15.630528 6.315686 19.33776 
			Si 15.630528 6.315686 23.205312 
			Si 16.746994 9.473529000000003 13.536432 
			Si 16.746994 9.473529000000003 17.403984 
			Si 16.746994 9.473529000000003 21.271535999999998 
			Si 16.746994 9.473529000000003 25.139088 
			Si 3.3493989999999996 0.0 1.933776 
			Si 3.3493989999999996 0.0 5.801328 
			Si 3.3493989999999996 0.0 9.66888 
			Si 3.3493989999999996 0.0 13.536432 
			Si 4.465865 3.157843 3.867552 
			Si 4.465865 3.157843 7.735104 
			Si 4.465865 3.157843 11.602656 
			Si 4.465865 3.157843 15.470208 
			Si 5.582331 6.315686 5.801328 
			Si 5.582331 6.315686 9.66888 
			Si 5.582331 6.315686 13.536432 
			Si 5.582331 6.315686 17.403984 
			Si 6.698797 9.473529000000003 7.735104 
			Si 6.698797 9.473529000000003 11.602656 
			Si 6.698797 9.473529000000003 15.470208 
			Si 6.698797 9.473529000000003 19.33776 
			Si 6.698797999999999 0.0 3.867552 
			Si 6.698797999999999 0.0 7.735104 
			Si 6.698797999999999 0.0 11.602656 
			Si 6.698797999999999 0.0 15.470208 
			Si 7.815263999999999 3.157843 5.801328 
			Si 7.815263999999999 3.157843 9.66888 
			Si 7.815263999999999 3.157843 13.536432 
			Si 7.815263999999999 3.157843 17.403984 
			Si 8.93173 6.315686 7.735104 
			Si 8.93173 6.315686 11.602656 
			Si 8.93173 6.315686 15.470208 
			Si 8.93173 6.315686 19.33776 
			Si 10.048196 9.473529000000003 9.66888 
			Si 10.048196 9.473529000000003 13.536432 
			Si 10.048196 9.473529000000003 17.403984 
			Si 10.048196 9.473529000000003 21.271535999999998 
			Si 10.048197 0.0 5.801328 
			Si 10.048197 0.0 9.66888 
			Si 10.048197 0.0 13.536432 
			Si 10.048197 0.0 17.403984 
			Si 11.164663000000001 3.157843 7.735104 
			Si 11.164663000000001 3.157843 11.602656 
			Si 11.164663000000001 3.157843 15.470208 
			Si 11.164663000000001 3.157843 19.33776 
			Si 12.281128999999998 6.315686 9.668879999999998 
			Si 12.281128999999998 6.315686 13.536431999999998 
			Si 12.281128999999998 6.315686 17.403983999999998 
			Si 12.281128999999998 6.315686 21.271535999999998 
			Si 13.397594999999997 9.473529000000003 11.602656 
			Si 13.397594999999997 9.473529000000003 15.470208 
			Si 13.397594999999997 9.473529000000003 19.33776 
			Si 13.397594999999997 9.473529000000003 23.205312 
			Si 4.62089681486463 2.4929932610544006 11.16461557147248 
			Si 4.62089681486463 2.4929932610544006 15.03216757147248 
			Si 4.62089681486463 2.4929932610544006 18.89971957147248 
			Si 4.62089681486463 2.4929932610544006 7.297063571472477 
			Si 5.73736281486463 5.6508362610544 13.09839157147248 
			Si 5.73736281486463 5.6508362610544 16.96594357147248 
			Si 5.73736281486463 5.6508362610544 20.83349557147248 
			Si 5.73736281486463 5.6508362610544 9.23083957147248 
			Si 6.85382881486463 8.808679261054403 15.03216757147248 
			Si 6.85382881486463 8.808679261054403 18.89971957147248 
			Si 6.85382881486463 8.808679261054403 22.767271571472477 
			Si 6.85382881486463 8.808679261054403 11.164615571472483 
			Si 7.97029481486463 11.9665222610544 16.96594357147248 
			Si 7.97029481486463 11.9665222610544 20.83349557147248 
			Si 7.97029481486463 11.9665222610544 24.70104757147248 
			Si 7.97029481486463 11.9665222610544 13.098391571472483 
			Si 7.970295814864629 2.4929932610544006 13.09839157147248 
			Si 7.970295814864629 2.4929932610544006 16.96594357147248 
			Si 7.970295814864629 2.4929932610544006 20.83349557147248 
			Si 7.970295814864629 2.4929932610544006 9.23083957147248 
			Si 9.08676181486463 5.6508362610544 15.03216757147248 
			Si 9.08676181486463 5.6508362610544 18.89971957147248 
			Si 9.08676181486463 5.6508362610544 22.767271571472477 
			Si 9.08676181486463 5.6508362610544 11.164615571472483 
			Si 10.20322781486463 8.808679261054403 16.96594357147248 
			Si 10.20322781486463 8.808679261054403 20.83349557147248 
			Si 10.20322781486463 8.808679261054403 24.70104757147248 
			Si 10.20322781486463 8.808679261054403 13.098391571472483 
			Si 11.31969381486463 11.9665222610544 18.89971957147248 
			Si 11.31969381486463 11.9665222610544 22.767271571472477 
			Si 11.31969381486463 11.9665222610544 26.63482357147248 
			Si 11.31969381486463 11.9665222610544 15.032167571472476 
			Si 11.31969481486463 2.4929932610544006 15.03216757147248 
			Si 11.31969481486463 2.4929932610544006 18.89971957147248 
			Si 11.31969481486463 2.4929932610544006 22.767271571472477 
			Si 11.31969481486463 2.4929932610544006 11.164615571472483 
			Si 12.43616081486463 5.6508362610544 16.96594357147248 
			Si 12.43616081486463 5.6508362610544 20.83349557147248 
			Si 12.43616081486463 5.6508362610544 24.70104757147248 
			Si 12.43616081486463 5.6508362610544 13.098391571472483 
			Si 13.552626814864631 8.808679261054403 18.89971957147248 
			Si 13.552626814864631 8.808679261054403 22.767271571472477 
			Si 13.552626814864631 8.808679261054403 26.63482357147248 
			Si 13.552626814864631 8.808679261054403 15.032167571472476 
			Si 14.669092814864628 11.9665222610544 20.83349557147248 
			Si 14.669092814864628 11.9665222610544 24.70104757147248 
			Si 14.669092814864628 11.9665222610544 28.568599571472483 
			Si 14.669092814864628 11.9665222610544 16.96594357147248 
			Si 1.2714978148646294 2.4929932610544006 9.230839571472481 
			Si 1.2714978148646294 2.4929932610544006 13.09839157147248 
			Si 1.2714978148646294 2.4929932610544006 16.96594357147248 
			Si 1.2714978148646294 2.4929932610544006 5.363287571472483 
			Si 2.387963814864629 5.6508362610544 11.164615571472481 
			Si 2.387963814864629 5.6508362610544 15.032167571472476 
			Si 2.387963814864629 5.6508362610544 18.89971957147248 
			Si 2.387963814864629 5.6508362610544 7.297063571472476 
			Si 3.504429814864627 8.808679261054403 13.09839157147248 
			Si 3.504429814864627 8.808679261054403 16.96594357147248 
			Si 3.504429814864627 8.808679261054403 20.833495571472483 
			Si 3.504429814864627 8.808679261054403 9.230839571472478 
			Si 4.620895814864629 11.9665222610544 15.032167571472478 
			Si 4.620895814864629 11.9665222610544 18.89971957147248 
			Si 4.620895814864629 11.9665222610544 22.767271571472477 
			Si 4.620895814864629 11.9665222610544 11.164615571472483
		&END COORD
		&KIND Si
			ELEMENT Si
			MAGNETIZATION 0.0
			BASIS_SET DZVP-MOLOPT-GTH
			POTENTIAL GTH-PBE
		&END KIND
	&END SUBSYS
	&DFT 
		BASIS_SET_FILE_NAME BASIS_MOLOPT
		POTENTIAL_FILE_NAME GTH_POTENTIALS
		UKS True
		MULTIPLICITY 0
		CHARGE 0
		&QS 
			METHOD GPW
			EPS_DEFAULT 1e-06
			EXTRAPOLATION ASPC
		&END QS
		&SCF 
			MAX_SCF 20
			EPS_SCF 1e-07
			SCF_GUESS RESTART
			&OT 
				PRECONDITIONER FULL_SINGLE_INVERSE
				ENERGY_GAP 0.01
				MINIMIZER CG
			&END OT
			&OUTER_SCF 
				MAX_SCF 20
				EPS_SCF 1e-07
			&END OUTER_SCF
		&END SCF
		&MGRID 
			CUTOFF 1200 ! Cutoff in [Ry] for finest level of the MG.
			REL_CUTOFF 80 ! Controls which gaussians are mapped to which level of the MG
			NGRIDS 5
			PROGRESSION_FACTOR 3
		&END MGRID
		&XC 
			&XC_FUNCTIONAL PBE
			&END XC_FUNCTIONAL
		&END XC
		&PRINT 
			&PDOS 
				NLUMO -1
				COMPONENTS 
				&LDOS 
					COMPONENTS 
				&END LDOS
			&END PDOS
		&END PRINT
	&END DFT
&END FORCE_EVAL
&GLOBAL 
	PROJECT_NAME CP2K
	RUN_TYPE DEBUG
&END GLOBAL
