$molecule
 3 2
 Dy      0.0000000000      0.0000000000      0.0000000000
$end

$rem
   job_type = sp
   basis = def2-tzvpd
   max_scf_cycles = 200
   gen_scfman = true
   xc_grid = 3
   scf_algorithm = diis
   resp_charges = false
   symmetry = false
   sym_ignore = true
   method = wb97xv
   solvent_method = pcm
   thresh = 14
$end

$pcm
   heavypoints 590
   hpoints 590
   radii read
   theory cpcm
   vdwscale 1
   sasradius 1.38
$end

$solvent
   dielectric 78.4
$end

$van_der_waals
1
   66 0.91
$end
