$molecule
 1 1
 Cs      0.0000000000      0.0000000000      0.0000000000
$end

$rem
   job_type = sp
   basis = def2-tzvpd
   max_scf_cycles = 200
   gen_scfman = true
   xc_grid = 3
   scf_algorithm = diis
   resp_charges = true
   symmetry = false
   sym_ignore = true
   method = wb97xv
   solvent_method = smd
   ideriv = 1
   smx_gas_phase = true
   thresh = 14
$end

$pcm
   vdwscale 1
   sasradius 1.38
   heavypoints 590
   hpoints 590
   radii read
$end

$smx
   solvent water
$end

$van_der_waals
1
   55 1.7
$end
