$molecule
 0  1
 C           2.37684200       -0.75604800       -0.00000400
 C           1.13738900       -1.41009000       -0.00000000
 C          -0.06735600       -0.71265000        0.00000400
 C          -0.04704300        0.70322500        0.00000400
 C           1.17649800        1.35476100       -0.00000000
 C           2.37900500        0.64176600       -0.00000400
 H           1.08020200       -2.49464700        0.00000000
 H           1.19530200        2.44167400       -0.00000000
 H           3.31389500        1.19823900       -0.00000700
 C          -2.33922400        0.72367600        0.00001100
 C          -2.36159600       -0.65532700        0.00001100
 H          -3.25212200        1.30756700        0.00001400
 H          -3.29300400       -1.20930100        0.00001400
 N          -1.18557400        1.42511600        0.00000700
 N          -1.23131600       -1.39428200        0.00000800
 C           3.67096300       -1.45918500       -0.00000700
 C           3.85955700       -2.78547800       -0.00001200
 H           3.05018400       -3.50625900       -0.00001300
 H           4.86723900       -3.19098800       -0.00001400
 H           4.55621300       -0.82453600       -0.00000600
$end


$rem
jobtype = opt
exchange = b3lyp
basis = 6-31+g*
sym_ignore = True
symmetry = False
s2thresh = 16
thresh = 14
$end



