ALGO = Fast
BMIX = 1
EDIFF = 8.4e-05
ENCUT = 400
IALGO = 48
IBRION = 0
ICHARG = 0
ISIF = 3
ISMEAR = 0
ISPIN = 1
ISTART = 1
ISYM = 0
KBLOCK = 100
LANGEVIN_GAMMA = 10 10 10
LANGEVIN_GAMMA_L = 1
LCHARG = False
LORBIT = 11
LPLANE = False
LREAL = True
LSCALU = False
LWAVE = False
MAXMIX = 20
MDALGO = 3
NBLOCK = 1
NELM = 500
NELMIN = 4
NPAR = 6
NSIM = 4
NSW = 10
PMASS = 10
POTIM = 2
PREC = Normal
PSTRESS = 0
SIGMA = 0.05
SMASS = 1
TEBEG = 1
TEEND = 400
