%chk=Optimization.chk
%Mem=1MB
%NProcShared=24
#P B3LYP/6-31+G* Opt=(MaxCycles=100) SCF SCRF=(PCM, Solvent=TetraHydroFuran)

H14 C6 S1 O2

2 1
S 0.663472 -0.352587 0.064345
O 0.696082 -1.521711 -0.772194
O 0.443521 -0.388093 1.487643
C -1.299101 0.746315 -0.713004
C -2.275225 -0.363997 -0.726814
C 2.062372 0.772028 -0.348351
C -1.420735 1.901920 0.197861
C -2.958634 -0.759411 0.576477
C 3.376949 0.127510 0.079155
H -0.806462 0.928092 -1.667707
H -3.029410 0.031385 -1.440949
H -1.861021 -1.224276 -1.258062
H 1.984803 0.916341 -1.425530
H 1.840910 1.693583 0.187721
H -0.593518 2.604656 0.119375
H -2.323356 2.445977 -0.128220
H -1.589927 1.615025 1.234508
H -3.495439 0.072548 1.031642
H -3.680715 -1.550563 0.380871
H -2.237458 -1.142273 1.300934
H 3.558819 -0.808040 -0.446142
H 4.170293 0.829714 -0.187582
H 3.416346 -0.038534 1.154086



