%chk=Optimization.chk
%mem=48GB
%NProcShared=28
#P B3LYP/6-31+G* opt=(maxcycles=5) scf

H10 C4 O2

0 1
O 1.724940 -0.522024 -0.002758
C 2.993771 0.117174 0.001859
C 0.648237 0.400893 -0.000391
C -0.646436 -0.400946 0.001289
O -1.726229 0.518750 0.000170
C -2.993014 -0.114625 0.000081
H 3.191019 0.608990 0.965064
H 3.058841 0.862859 -0.808106
H 0.686452 1.047437 -0.891425
H 0.683799 1.048338 0.890377
H -0.685781 -1.046335 0.893333
H -0.686351 -1.048611 -0.889176
H -3.128465 -0.740853 0.896021
H -3.127802 -0.742042 -0.895128
H -3.744952 0.678596 -0.000759
H 3.748207 -0.657166 -0.156531



