%chk=checkpoint.chk
%mem=45GB
%NProcShared=28
#P wB97X/Def2TZVP opt=(calcfc,tight) scf=(tight,maxcycle=100) int=ultrafine nosymmetry test scrf=(solvent=generic,read)

Mg1 H30 C12 O6

2 1
Mg 38.368301 42.090174 23.451563
O 37.113609 43.752418 23.183780
O 39.550273 43.673452 24.146353
C 37.765911 45.015063 23.341397
C 38.805391 44.863050 24.422604
C 35.992516 43.807108 22.298046
C 40.784971 43.583346 24.867190
H 38.216621 45.300288 22.385449
H 37.039792 45.778324 23.630471
H 39.470169 45.729101 24.422335
H 38.343756 44.774104 25.410442
H 36.321129 44.133462 21.311001
H 35.573752 42.804997 22.245480
H 35.245736 44.497386 22.693097
H 41.262553 42.647202 24.585240
H 41.425572 44.424814 24.599097
H 40.590859 43.598283 25.941736
O 39.706946 40.635608 24.169899
O 37.530662 41.588021 25.294479
C 39.226048 39.931804 25.320610
C 38.440188 40.905433 26.161124
C 40.684846 39.900160 23.423742
C 36.501019 42.295867 25.993108
H 38.599238 39.095893 24.993268
H 40.065808 39.540211 25.898067
H 37.886365 40.369015 26.935171
H 39.096657 41.639760 26.641926
H 41.576655 39.753975 24.034551
H 40.280161 38.930705 23.123015
H 40.932440 40.489634 22.544083
H 36.936889 43.052974 26.649103
H 35.870862 42.772217 25.245288
H 35.914248 41.592248 26.585136
O 37.133440 40.778178 22.389068
O 39.203543 42.136652 21.528868
C 37.716669 40.325789 21.160407
C 38.419072 41.496064 20.517817
C 36.173429 39.862584 22.933301
C 40.029934 43.169922 20.988926
H 38.417871 39.513982 21.377668
H 36.936398 39.951674 20.493831
H 39.068371 41.139418 19.714717
H 37.715707 42.227470 20.100652
H 35.333055 39.761295 22.243564
H 36.637196 38.885463 23.093076
H 35.829526 40.271069 23.881750
H 40.742505 42.741003 20.283157
H 39.399248 43.906355 20.483244
H 40.558690 43.634886 21.816904

Eps=4.33
EpsInf=1.69

