$molecule
 1 1
 O      4.1712271795     -3.1562385377      0.1998843533
 C      4.3844203556     -2.0177777943      0.1553095852
 O      4.6330917865     -0.8856509879      0.1137096543
 O      1.6571532799     -1.2819956910     -0.1018112096
 O     -0.8400732524      2.5262831195     -0.1056926170
 C     -1.9286236660      2.7693813293      0.0269577646
 O     -3.0760478912      3.1491387622      0.1788238902
 C      0.3185675202     -0.7818118052     -0.1074051817
 C      1.4587592415      0.1323382909     -0.1080819702
 H     -3.7909336755      2.4486257367      0.1830546612
 H     -0.2291402043     -0.9543596430     -1.0305456289
 H     -0.2340220213     -0.9466492831      0.8142734138
 H      1.7397897322      0.6370621379      0.8130189506
 H      1.7450361406      0.6298288944     -1.0314956684
$end

$rem
   job_type = freq
   basis = def2-tzvppd
   max_scf_cycles = 200
   gen_scfman = true
   xc_grid = 3
   scf_algorithm = diis
   resp_charges = true
   symmetry = false
   sym_ignore = true
   method = wb97xv
   geom_opt_max_cycles = 100
   solvent_method = smd
   ideriv = 1
   thresh = 14
$end

$smx
   solvent other
$end
