$molecule
1 1
O      4.1540939956     -3.1580883065      0.2673137932
C      4.3771956256     -2.0227680818      0.1979382726
O      4.6358376966     -0.8941669225      0.1324806683
O      1.6625417854     -1.2780625765     -0.1472976630
O     -0.8455671934      2.5219977436     -0.0839313237
C     -1.9339614640      2.7651534904      0.0498941036
O     -3.0811971999      3.1450385360      0.2029055151
C      0.3244161905     -0.7767766997     -0.1305996909
C      1.4652003222      0.1364738918     -0.1472279306
H     -3.7961418261      2.4445905625      0.2079556941
H     -0.2379169570     -0.9467876173     -1.0453827747
H     -0.2137063279     -0.9431475427      0.7993329963
H      1.7611017600      0.6387560640      0.7705406856
H      1.7373081177      0.6359619873     -1.0739223486
$end

$rem
job_type = freq
basis = def2-tzvppd
max_scf_cycles = 200
gen_scfman = true
xc_grid = 3
scf_algorithm = diis
resp_charges = true
symmetry = false
sym_ignore = true
method = wb97xv
geom_opt_max_cycles = 100
solvent_method = smd
ideriv = 1
thresh = 14
$end

$smx
solvent other
$end
