$molecule
 1 1
 O      4.1950273101     -3.1452599080      0.1068380808
 C      4.3879990982     -2.0023581909      0.1150265170
 O      4.6160114534     -0.8651829983      0.1259158049
 O      1.6423327964     -1.2960938573     -0.0588589007
 O     -0.8306930824      2.5263581394     -0.1267666672
 C     -1.9190699274      2.7710028375      0.0043884721
 O     -3.0662768562      3.1520597432      0.1547237560
 C      0.3081594866     -0.7845675986     -0.0811767992
 C      1.4559952627      0.1199021898     -0.0734453786
 H     -3.7822361786      2.4526364528      0.1548662883
 H     -0.2307172919     -0.9566557906     -1.0096013456
 H     -0.2559943479     -0.9406579754      0.8349820681
 H      1.7316382350      0.6266304766      0.8488176499
 H      1.7570285674      0.6103610085     -0.9957095484
$end

$rem
   job_type = freq
   basis = def2-tzvppd
   max_scf_cycles = 200
   gen_scfman = true
   xc_grid = 3
   scf_algorithm = diis
   resp_charges = true
   symmetry = false
   sym_ignore = true
   method = wb97xv
   geom_opt_max_cycles = 100
   solvent_method = smd
   ideriv = 1
   thresh = 14
$end

$smx
   solvent other
$end
