$molecule
 0 2
 C      0.3960571497     -1.5958064007     -0.0282279861
 O      1.2767933321     -1.8828648507     -0.7558720479
 H      0.3322620130     -1.8566608950      1.0655006366
 O     -1.0526227416      1.5373646072      0.1319756077
 Li     -0.6250083147      3.0992048727      0.5079507896
 Li     -1.2334114386      0.0300426665     -0.5591670000
$end

$rem
   job_type = freq
   basis = def2-svpd
   max_scf_cycles = 200
   gen_scfman = true
   xc_grid = 3
   scf_algorithm = diis
   resp_charges = true
   symmetry = false
   sym_ignore = true
   method = wb97xv
   solvent_method = smd
   ideriv = 1
   thresh = 14
$end

$smx
   solvent other
$end
