$molecule
 -1 2
 S      1.1845744522      0.0027334277     -0.2163695842
 C      0.7937268962      1.2945409914      1.0234773576
 N      0.1253130191      0.2451477497     -1.3762614106
 O      1.0620348672     -1.2803580051      0.4612230476
 O      2.4911696161      0.3979416169     -0.7046997902
 F     -0.3922244655      1.1880737023      1.5912245742
 F      1.7325985671      1.4419085975      1.9456278051
 S     -1.3583087823     -0.3310524428     -1.4523818779
 C     -2.2560791001      1.2553869186     -1.8631263099
 O     -1.5472877666     -1.1559991807     -2.6312873852
 O     -1.9464194401     -0.7796143636     -0.2018106717
 F     -1.8082344004      1.7849965540     -2.9966328844
 F     -3.5560576686      0.9941215759     -2.0052455262
 F     -2.1117826365      2.1499604169     -0.8893253537
$end

$rem
   job_type = freq
   basis = 6-311++g*
   max_scf_cycles = 200
   gen_scfman = true
   scf_algorithm = gdm
   method = wb97xd
   geom_opt_max_cycles = 200
   solvent_method = pcm
   xc_grid = 3
$end

$pcm
   heavypoints 194
   hpoints 194
   radii uff
   theory cpcm
   vdwscale 1.1
$end

$solvent
   dielectric 3.0
$end
