$molecule
 -1 2
 S      1.1860297014      0.0188677542     -0.2282900730
 C      0.8192437489      1.3654601928      1.0182726166
 N      0.1241201746      0.2461530897     -1.3852138881
 O      1.0435339757     -1.2172053788      0.5185674957
 O      2.4943895637      0.3824687199     -0.7358083636
 F     -0.3779953628      1.1979491970      1.5684928287
 F      1.7374773126      1.3368868332      1.9847458446
 S     -1.3606196835     -0.3344113406     -1.4575558477
 C     -2.2637986796      1.2499413845     -1.8641256098
 O     -1.5424887503     -1.1579054368     -2.6380147289
 O     -1.9450716722     -0.7874305265     -0.2077642729
 F     -1.8103172698      1.7896916631     -2.9899493011
 F     -3.5605846432      0.9809028011     -2.0171609969
 F     -2.1308952577      2.1364186057     -0.8817837134
$end

$rem
   job_type = opt
   basis = 6-311++g*
   max_scf_cycles = 200
   gen_scfman = true
   scf_algorithm = gdm
   method = wb97xd
   geom_opt_max_cycles = 200
   solvent_method = pcm
   xc_grid = 3
$end

$pcm
   heavypoints 194
   hpoints 194
   radii uff
   theory cpcm
   vdwscale 1.1
$end

$solvent
   dielectric 3.0
$end
