$molecule
 -1 2
 S      1.1964048302      0.0411821561     -0.2245029690
 C      0.9157276689      1.2176435347      1.1691388862
 N      0.0587671431      0.4418277832     -1.2764425966
 O      1.0819986300     -1.3106733486      0.3273918970
 O      2.4845150285      0.4541359122     -0.7490637075
 F     -0.2517387273      1.1096974483      1.7760742297
 F      1.8997026557      1.2282223957      2.0676285778
 S     -1.3782725451     -0.2548943847     -1.3836178060
 C     -2.3366735499      1.2457747365     -1.9932604674
 O     -1.4726085058     -1.2144116719     -2.4848864580
 O     -2.0003955395     -0.6117708764     -0.1145616343
 F     -1.8400285412      1.7103172932     -3.1371186226
 F     -3.6085549708      0.8846905798     -2.2115377418
 F     -2.3276870342      2.2283366709     -1.0823083941
$end

$rem
   job_type = opt
   basis = 6-311++g*
   max_scf_cycles = 200
   gen_scfman = true
   scf_algorithm = gdm
   method = wb97xd
   geom_opt_max_cycles = 200
   solvent_method = pcm
   xc_grid = 3
$end

$pcm
   heavypoints 194
   hpoints 194
   radii uff
   theory cpcm
   vdwscale 1.1
$end

$solvent
   dielectric 3.0
$end
