$molecule
 1 2
 O     -0.0721167665     -0.9423525538      0.1290391903
 O     -0.9128152807      1.1031948336     -0.0245850683
 O     -2.2899395558     -0.6718014746     -0.1314867790
 C      1.0295613906     -0.0735259180      0.4243446514
 C      0.4993856923      1.2773171897     -0.0556605261
 C      2.2823788219     -0.5560560675     -0.2650326350
 C     -1.2006882180     -0.2179911101     -0.0198713747
 H      1.1583513217     -0.0744629277      1.5119911786
 H      2.5706747276     -1.5425688185      0.1009152216
$end

$rem
   job_type = opt
   basis = 6-311++g*
   max_scf_cycles = 200
   gen_scfman = true
   scf_algorithm = gdm
   method = wb97xd
   geom_opt_max_cycles = 200
$end
