Na2 Fe1 Ni1 O4
1.0
-2.816100 0.000000 0.000000
-0.000000 -4.877628 0.000000
-1.408050 0.812938 4.684533
Na Fe Ni O
2 1 1 4
direct
0.000000 0.000000 0.000000 Na
0.500000 0.500000 0.000000 Na
0.250000 0.250000 0.500000 Fe
0.750000 0.750000 0.500000 Ni
0.859265 0.380245 0.281470 O
0.359265 0.880245 0.281470 O
0.640735 0.119755 0.718530 O
0.140735 0.619755 0.718530 O
