ALGO = Fast
AMIN = 0.01
AMIX = 0.2
BMIX = 0.001
EDIFF = 1e-05
EDIFFG = -0.02
ENAUG = 4000
ENCUT = 400
GGA = Pe
IBRION = 1
IDIPOL = 3
ISIF = 2
ISMEAR = 1
ISPIN = 2
ISYM = 0
IVDW = 0
KPAR = 16
LASPH = True
LDAU = False
LDIPOL = True
LMAXMIX = 4
LORBIT = 11
LREAL = Auto
LVTOT = True
LWAVE = False
MAGMOM = 48*0.0
NCORE = 4
NELM = 100
NELMIN = 8
NSW = 99
POTIM = 1.4000000000000004
PREC = Accurate
SIGMA = 0.15
