Na36 Pd12
1.0
10.162335 0.000000 0.777130
5.051452 8.817931 0.777130
0.000000 0.000000 33.416730
Na Pd
36 12
Selective dynamics
direct
0.054688 0.054688 0.921875 F F F Na
0.054688 0.554688 0.921875 F F F Na
0.554688 0.054688 0.921875 F F F Na
0.554688 0.554688 0.921875 F F F Na
0.210938 0.210937 0.984375 T T T Na
0.210938 0.710937 0.984375 T T T Na
0.710938 0.210937 0.984375 T T T Na
0.710938 0.710937 0.984375 T T T Na
0.382813 0.382813 0.953125 T T T Na
0.382813 0.882813 0.953125 T T T Na
0.882813 0.382813 0.953125 T T T Na
0.882813 0.882813 0.953125 T T T Na
0.242188 0.242188 0.796875 F F F Na
0.242188 0.742188 0.796875 F F F Na
0.742188 0.242188 0.796875 F F F Na
0.742188 0.742188 0.796875 F F F Na
0.398438 0.398437 0.859375 F F F Na
0.398438 0.898437 0.859375 F F F Na
0.898438 0.398437 0.859375 F F F Na
0.898438 0.898437 0.859375 F F F Na
0.070313 0.070313 0.828125 F F F Na
0.070313 0.570313 0.828125 F F F Na
0.570313 0.070313 0.828125 F F F Na
0.570313 0.570313 0.828125 F F F Na
0.429688 0.429688 0.671875 F F F Na
0.429688 0.929688 0.671875 F F F Na
0.929688 0.429688 0.671875 F F F Na
0.929688 0.929688 0.671875 F F F Na
0.085938 0.085937 0.734375 F F F Na
0.085938 0.585937 0.734375 F F F Na
0.585938 0.085937 0.734375 F F F Na
0.585938 0.585937 0.734375 F F F Na
0.257813 0.257813 0.703125 F F F Na
0.257813 0.757813 0.703125 F F F Na
0.757813 0.257813 0.703125 F F F Na
0.757813 0.757813 0.703125 F F F Na
0.226563 0.226563 0.890625 F F F Pd
0.226563 0.726563 0.890625 F F F Pd
0.726563 0.226563 0.890625 F F F Pd
0.726563 0.726563 0.890625 F F F Pd
0.414063 0.414063 0.765625 F F F Pd
0.414063 0.914063 0.765625 F F F Pd
0.914063 0.414063 0.765625 F F F Pd
0.914063 0.914063 0.765625 F F F Pd
0.101563 0.101563 0.640625 F F F Pd
0.101563 0.601563 0.640625 F F F Pd
0.601563 0.101563 0.640625 F F F Pd
0.601563 0.601563 0.640625 F F F Pd
