$molecule
 -1 3
 S      0.5697042310     -1.3060009285      0.1029831212
 C      0.9154734522      2.0978122482      0.7444147373
 N      0.2161558501     -0.2328303433     -1.1014425833
 O     -0.2971642789     -1.1114855188      1.3217194438
 F      1.1168716684      3.0016086049     -0.1940249041
 F     -0.0371951295      2.4838498608      1.5723764329
 F      2.0353405896      1.8494215466      1.4015952370
 S     -1.0658366145     -0.3512544528     -2.0201207556
 C     -2.2914617275      0.8642010579     -1.2971290831
 O     -0.7983697611      0.2173065516     -3.3344458147
 O     -1.7759558604     -1.6270371209     -1.9610097788
 F     -1.7858926553      2.0969953023     -1.2839068859
 F     -3.4031202198      0.8779868807     -2.0368657618
 F     -2.6216514528      0.5315934016     -0.0532838777
$end

$rem
   job_type = freq
   basis = 6-311++g*
   max_scf_cycles = 200
   gen_scfman = true
   scf_algorithm = gdm
   method = wb97xd
   geom_opt_max_cycles = 200
   solvent_method = pcm
$end

$pcm
   heavypoints 194
   hpoints 194
   radii uff
   theory cpcm
   vdwscale 1.1
$end

$solvent
   dielectric 7.0
$end
