$molecule
 -1 3
 S      0.4987861275     -1.3905800791      0.1234427448
 C      0.8240733887      2.1244575519      0.6879182965
 N      0.2237168448     -0.2724552361     -1.0632198256
 O     -0.2412404766     -1.0540798017      1.3936849354
 F      1.0545582817      3.0329022521     -0.2407646530
 F     -0.0028681208      2.5928060509      1.6056281686
 F      1.9557291767      1.7239900567      1.2392244335
 S     -1.0351292269     -0.3342856583     -2.0184923746
 C     -2.2772807032      0.8531315333     -1.2764242843
 O     -0.7249495108      0.2924469933     -3.2963059567
 O     -1.7567854336     -1.6049447602     -2.0396031383
 F     -1.7720525260      2.0835246495     -1.1973083481
 F     -3.3708765805      0.9006099760     -2.0410174101
 F     -2.6382157044      0.4673601427     -0.0557642310
$end

$rem
   job_type = freq
   basis = 6-311++g*
   max_scf_cycles = 200
   gen_scfman = true
   scf_algorithm = gdm
   method = wb97xd
   geom_opt_max_cycles = 200
   solvent_method = pcm
$end

$pcm
   heavypoints 194
   hpoints 194
   radii uff
   theory cpcm
   vdwscale 1.1
$end

$solvent
   dielectric 7.0
$end
