$molecule
 -1 3
 S      1.3506333222     -0.6120810660     -0.9824761974
 C      0.7056134575      1.6149608831      1.3438223702
 O      1.0072908142     -1.0955799720      0.4273754284
 O      2.7579097398     -0.0291696725     -1.0751029858
 F      0.7229836861      2.7399925858      0.6454831980
 F     -0.4704167192      1.4478368307      1.9207753911
 F      1.6718873840      1.6147252296      2.2434591152
$end

$rem
   job_type = freq
   basis = 6-311++g*
   max_scf_cycles = 200
   gen_scfman = true
   scf_algorithm = gdm
   method = wb97xd
   geom_opt_max_cycles = 200
   solvent_method = pcm
   xc_grid = 3
$end

$pcm
   heavypoints 194
   hpoints 194
   radii uff
   theory cpcm
   vdwscale 1.1
$end

$solvent
   dielectric 30.0
$end
