$molecule
 -1 3
 S      1.3552649364     -0.6235230673     -0.9815912159
 C      0.6960620357      1.6286878008      1.3439248513
 O      1.0163305315     -1.0557806569      0.4461518105
 O      2.7887069743     -0.1178323428     -1.1148538093
 F      0.6948408481      2.7726170596      0.6760823833
 F     -0.4742957326      1.4311500642      1.9225483460
 F      1.6672436791      1.6180907328      2.2384172844
$end

$rem
   job_type = freq
   basis = 6-311++g*
   max_scf_cycles = 200
   gen_scfman = true
   scf_algorithm = gdm
   method = wb97xd
   geom_opt_max_cycles = 200
   solvent_method = pcm
   xc_grid = 3
$end

$pcm
   heavypoints 194
   hpoints 194
   radii uff
   theory cpcm
   vdwscale 1.1
$end

$solvent
   dielectric 30.0
$end
