$molecule
 -1 3
 S      1.3366460256     -0.6344607405     -0.9597468405
 C      0.7489740768      1.5960780327      1.3088541288
 O      0.9709238431     -1.2113248510      0.4112900374
 O      2.6449623201      0.2072156394     -0.9289357367
 F      0.7824296965      2.7092205334      0.5940798831
 F     -0.4368472075      1.4390947703      1.8669242993
 F      1.7005613420      1.6021366627      2.2235272176
$end

$rem
   job_type = opt
   basis = 6-311++g*
   max_scf_cycles = 200
   gen_scfman = true
   scf_algorithm = gdm
   method = wb97xd
   geom_opt_max_cycles = 200
   solvent_method = pcm
   xc_grid = 3
$end

$pcm
   heavypoints 194
   hpoints 194
   radii uff
   theory cpcm
   vdwscale 1.1
$end

$solvent
   dielectric 30.0
$end
