$comment
CAS-50-07-7 singlet neutral B3LYP 6-31+G* geometry optimization
$end


$molecule
0  1
O          -3.0120349292    1.2459810276   -1.2180285576
C          -3.1071064884    1.6075114389   -2.6308631164
C          -1.9196328541    1.2658450986   -0.4892040233
N           0.7532336924    1.2731972415    1.9668530154
C          -0.9913347294    2.4347783097   -0.6103806555
C          -1.5665435701   -0.0992177003    0.0748436516
C           0.8720693018    0.3984004503    1.0101238593
C          -0.4053721275    2.1489265096    1.8957700597
C          -0.2876268327    2.9575204737    0.5999309464
N          -1.3920725608    3.7184867962   -0.0185104638
C          -2.2849497053   -0.7844315941    1.2674138483
C          -0.0874515982   -0.1173306128    0.0433084198
C           3.3991918094    0.3807478018    0.9635723568
O          -1.8363668910   -2.1497705401    1.3283152767
C           0.5774632490   -0.6914688266   -1.0860592541
O           6.0309907125   -1.0565490536   -0.9453546014
C           2.2330970385   -0.0749329730    0.5726892456
C          -2.3686889252   -3.0306557653    0.4233306233
O           0.0912865929   -1.0883751406   -2.1557663780
C           2.0599145910   -0.7269377446   -0.7483585832
C           4.5879167263    0.8079044292    1.2490550158
N          -1.8494091355   -4.2692495203    0.6283104830
O          -3.2002368136   -2.7369644499   -0.4182909895
N           2.9691766571   -1.1547952276   -1.5336590429
H          -4.1607628530    1.8342513816   -2.7974874157
H          -2.8194579618    0.6925152742   -3.1631799941
H          -2.4672647288    2.4546044288   -2.8962060920
H          -0.5001096752    2.5249726322   -1.5807824300
H          -1.8822832726   -0.7235334907   -0.7735683031
H          -0.4301215236    2.8134048949    2.7687719062
H          -1.3737514572    1.6113529221    1.8466955956
H           0.6837794542    3.4284230523    0.4439910406
H          -2.2488533257    3.6133402921    0.5202272941
H          -3.3702272926   -0.7608606871    1.1258570250
H          -2.0111257527   -0.3782832739    2.2434410106
H           5.2607319203    0.2230374516    1.8673186198
H           4.9289674581    1.7682070274    0.8610460187
H           6.0205075647   -1.5211167634   -0.0977601072
H          -1.1032411921   -4.4125683419    1.2913493403
H          -2.0878498444   -5.0117573193   -0.0107144350
H           2.5186450795   -1.4857292733   -2.3991448618
H           5.0921837870   -1.0123447205   -1.2281710996
$end


$rem
jobtype = opt
exchange = b3lyp
basis = 6-31+g*
mem_static = 100
mem_total = 1100
max_scf_cycles = 100
scf_algorithm = rca_diis
geom_opt_max_cycles = 200
$end

