$comment
 4_phenyl_7_trifluoromethyl_1_3_dihydro_2_1_3_benzothiadiazole singlet
neutral B3lYP/6-31+G* geometry optimization
$end


$molecule
 0  1
 C          -1.22970000       -3.27610000       -1.57840000
 C          -1.45560000       -2.17570000       -2.42380000
 C          -0.06310000       -3.33080000       -0.79580000
 C          -0.51630000       -1.12920000       -2.48550000
 C           0.87730000       -2.28580000       -0.85890000
 C           2.15570000        0.28830000       -3.00960000
 C           3.10610000        1.32460000       -3.09390000
 C           0.66260000       -1.16770000       -1.70130000
 C           1.61290000       -0.11040000       -1.76550000
 C           3.55600000        2.01200000       -1.93930000
 C           2.05100000        0.57630000       -0.60880000
 C           3.00470000        1.61610000       -0.69540000
 C           4.56470000        3.11010000       -2.01360000
 F           4.02800000        4.27790000       -1.52770000
 F           5.01840000        3.38510000       -3.28280000
 F           5.67060000        2.78760000       -1.26470000
 N           1.62110000        0.34650000        0.65220000
 N           3.30600000        2.16370000        0.50360000
 S           2.40760000        1.40110000        1.73570000
 H          -1.91210000       -4.03610000       -1.53380000
 H          -2.30410000       -2.13580000       -2.99310000
 H           0.10270000       -4.13150000       -0.18190000
 H          -0.70440000       -0.33560000       -3.10410000
 H           1.72460000       -2.35270000       -0.28880000
 H           1.86850000       -0.18160000       -3.87280000
 H           3.46720000        1.56910000       -4.01840000
 H           0.96160000       -0.31770000        0.90650000
 H           3.93740000        2.88620000        0.64580000
$end


$rem
jobtype = opt
exchange = b3lyp
basis = 6-31+g*
mem_static = 3000
mem_total = 28000
thresh = 14
$end

