$comment
 4_phenyl_7_trifluoromethyl_1_3_dihydro_2_1_3_benzothiadiazole singlet
neutral B3lYP/6-31+G* geometry optimization
$end


$molecule
 0  1
 C          -5.28239800       -0.40413700        0.02520900
 C          -4.59429700       -1.30752400       -0.78969900
 C          -4.56124100        0.44649800        0.86754700
 C          -3.19965800       -1.35498600       -0.76789500
 C          -3.16561500        0.39930400        0.89078500
 C          -0.31705000       -1.83196900        0.09419600
 C           1.06379900       -1.92703000        0.08538200
 C          -2.45934200       -0.50148400        0.07102400
 C          -0.97947400       -0.57824100        0.10360900
 C           1.86207600       -0.76386400        0.06226000
 C          -0.18067400        0.56927800        0.10481300
 C           1.23090700        0.48341100        0.06734000
 C           3.35207700       -0.84612600        0.04326800
 F           3.89906600       -0.11325700       -0.98124100
 F           3.81148500       -2.11003700       -0.09026600
 F           3.91939400       -0.33859300        1.17778300
 N          -0.62246900        1.89304400        0.07031500
 N           1.82023900        1.72673300       -0.02037400
 S           0.67721300        3.03856900       -0.20051700
 H          -6.36499000       -0.36510000        0.00564100
 H          -5.14213600       -1.97139300       -1.44835800
 H          -5.08371200        1.13867200        1.51766800
 H          -2.67534300       -2.04416700       -1.41908400
 H          -2.62015800        1.03179400        1.58123800
 H          -0.91918900       -2.73031000        0.13353800
 H           1.54825200       -2.89292600        0.10502700
 H          -1.51460200        2.11843200       -0.34832800
 H           2.78387300        1.88145700       -0.27215000
$end


$rem
jobtype = opt
exchange = b3lyp
basis = 6-31+g*
mem_static = 3000
mem_total = 28000
thresh = 14
s2thresh = 16
scf_algorithm = diis_gdm
$end

