ALGO = Fast
EDIFF = 0.001
ENCUT = 520
IBRION = 2
ICHARG = 1
ISIF = 3
ISMEAR = 0
ISPIN = 2
ISTART = 1
LORBIT = 11
LREAL = Auto
LWAVE = False
MAGMOM = 120*0.6
NELM = 100
NELMIN = 6
NPAR = 4
NSW = 99
PREC = Accurate
SIGMA = 0.05
