ALGO = All
EDIFF = 1e-05
EDIFFG = -0.02
ENAUG = 1360
ENCUT = 680
IBRION = 2
ICHARG = 1
ISIF = 3
ISMEAR = -5
ISPIN = 2
KSPACING = 0.26670552006583537
LAECHG = True
LASPH = True
LCHARG = True
LELF = True
LMIXTAU = True
LORBIT = 11
LREAL = Auto
LVTOT = True
LWAVE = False
MAGMOM = 4*0.6
METAGGA = R2scan
NELM = 200
NSW = 99
PREC = Accurate
SIGMA = 0.05
