Li1 Ac1 Tl2
1.0
0.000000 3.834057 3.834057
3.834057 0.000000 3.834057
3.834057 3.834057 0.000000
Li Ac Tl
1 1 2
direct
0.750000 0.750000 0.750000 Li
0.250000 0.250000 0.250000 Ac
0.000000 0.000000 0.000000 Tl
0.500001 0.500001 0.500001 Tl
