ALGO = Fast
EDIFF = 0.0004
ENCUT = 520
IBRION = 2
ICHARG = 1
ISIF = 3
ISMEAR = -5
KSPACING = 2
ISPIN = 2
LDAU = True
LDAUJ = 0 0 0 0
LDAUL = 0 2 2 0
LDAUTYPE = 2
LDAUU = 0 4.0 6 0
LMAXMIX = 4
LORBIT = 11
LREAL = Auto
LWAVE = False
MAGMOM = 2*0.6 1*5 5*0.6
NELM = 100
NELMIN = 6
NPAR = 1
NSW = 99
PREC = Accurate
SIGMA = 0.05
