Automatic kpoint scheme
0
Monkhorst
8 2 2
