Na Fe Ni O
1.0
 -11.2644000000000002   0.0000000000000000   0.0000000000000000
   0.0000000000000000 -14.6328840000000007   0.0000000000000000
  -4.2241499999999998   2.4388139999999998  14.0535990000000002
Na Fe Ni O
71  36  36  144  
Direct
  0.3750000000000000  0.0000000000000000  0.0000000000000000  
  0.0000000000000000  0.0000000000000000  0.0000000000000000  
  0.0000000000000000  0.0000000000000000  0.3333330000000030  
  0.0000000000000000  0.0000000000000000  0.6666669999999970  
  0.0000000000000000  0.3333330000000030  0.0000000000000000  
  0.0000000000000000  0.3333330000000030  0.3333330000000030  
  0.0000000000000000  0.3333330000000030  0.6666669999999970  
  0.0000000000000000  0.6666669999999970  0.0000000000000000  
  0.0000000000000000  0.6666669999999970  0.3333330000000030  
  0.0000000000000000  0.6666669999999970  0.6666669999999970  
  0.2500000000000000  0.0000000000000000  0.3333330000000030  
  0.2500000000000000  0.0000000000000000  0.6666669999999970  
  0.2500000000000000  0.3333330000000030  0.0000000000000000  
  0.2500000000000000  0.3333330000000030  0.3333330000000030  
  0.2500000000000000  0.3333330000000030  0.6666669999999970  
  0.2500000000000000  0.6666669999999970  0.0000000000000000  
  0.2500000000000000  0.6666669999999970  0.3333330000000030  
  0.2500000000000000  0.6666669999999970  0.6666669999999970  
  0.5000000000000000  0.0000000000000000  0.3333330000000030  
  0.5000000000000000  0.0000000000000000  0.6666669999999970  
  0.5000000000000000  0.3333330000000030  0.0000000000000000  
  0.5000000000000000  0.3333330000000030  0.3333330000000030  
  0.5000000000000000  0.3333330000000030  0.6666669999999970  
  0.5000000000000000  0.6666669999999970  0.0000000000000000  
  0.5000000000000000  0.6666669999999970  0.3333330000000030  
  0.5000000000000000  0.6666669999999970  0.6666669999999970  
  0.7500000000000000  0.0000000000000000  0.0000000000000000  
  0.7500000000000000  0.0000000000000000  0.3333330000000030  
  0.7500000000000000  0.0000000000000000  0.6666669999999970  
  0.7500000000000000  0.3333330000000030  0.0000000000000000  
  0.7500000000000000  0.3333330000000030  0.3333330000000030  
  0.7500000000000000  0.3333330000000030  0.6666669999999970  
  0.7500000000000000  0.6666669999999970  0.0000000000000000  
  0.7500000000000000  0.6666669999999970  0.3333330000000030  
  0.7500000000000000  0.6666669999999970  0.6666669999999970  
  0.1250000000000000  0.1666669999999970  0.0000000000000000  
  0.1250000000000000  0.1666669999999970  0.3333330000000030  
  0.1250000000000000  0.1666669999999970  0.6666669999999970  
  0.1250000000000000  0.5000000000000000  0.0000000000000000  
  0.1250000000000000  0.5000000000000000  0.3333330000000030  
  0.1250000000000000  0.5000000000000000  0.6666669999999970  
  0.1250000000000000  0.8333330000000030  0.0000000000000000  
  0.1250000000000000  0.8333330000000030  0.3333330000000030  
  0.1250000000000000  0.8333330000000030  0.6666669999999970  
  0.3750000000000000  0.1666669999999970  0.0000000000000000  
  0.3750000000000000  0.1666669999999970  0.3333330000000030  
  0.3750000000000000  0.1666669999999970  0.6666669999999970  
  0.3750000000000000  0.5000000000000000  0.0000000000000000  
  0.3750000000000000  0.5000000000000000  0.3333330000000030  
  0.3750000000000000  0.5000000000000000  0.6666669999999970  
  0.3750000000000000  0.8333330000000030  0.0000000000000000  
  0.3750000000000000  0.8333330000000030  0.3333330000000030  
  0.3750000000000000  0.8333330000000030  0.6666669999999970  
  0.6250000000000000  0.1666669999999970  0.0000000000000000  
  0.6250000000000000  0.1666669999999970  0.3333330000000030  
  0.6250000000000000  0.1666669999999970  0.6666669999999970  
  0.6250000000000000  0.5000000000000000  0.0000000000000000  
  0.6250000000000000  0.5000000000000000  0.3333330000000030  
  0.6250000000000000  0.5000000000000000  0.6666669999999970  
  0.6250000000000000  0.8333330000000030  0.0000000000000000  
  0.6250000000000000  0.8333330000000030  0.3333330000000030  
  0.6250000000000000  0.8333330000000030  0.6666669999999970  
  0.8750000000000000  0.1666669999999970  0.0000000000000000  
  0.8750000000000000  0.1666669999999970  0.3333330000000030  
  0.8750000000000000  0.1666669999999970  0.6666669999999970  
  0.8750000000000000  0.5000000000000000  0.0000000000000000  
  0.8750000000000000  0.5000000000000000  0.3333330000000030  
  0.8750000000000000  0.5000000000000000  0.6666669999999970  
  0.8750000000000000  0.8333330000000030  0.0000000000000000  
  0.8750000000000000  0.8333330000000030  0.3333330000000030  
  0.8750000000000000  0.8333330000000030  0.6666669999999970  
  0.0625000000000000  0.0833330000000032  0.1666669999999970  
  0.0625000000000000  0.0833330000000032  0.5000000000000000  
  0.0625000000000000  0.0833330000000032  0.8333330000000030  
  0.0625000000000000  0.4166669999999970  0.1666669999999970  
  0.0625000000000000  0.4166669999999970  0.5000000000000000  
  0.0625000000000000  0.4166669999999970  0.8333330000000030  
  0.0625000000000000  0.7500000000000000  0.1666669999999970  
  0.0625000000000000  0.7500000000000000  0.5000000000000000  
  0.0625000000000000  0.7500000000000000  0.8333330000000030  
  0.3125000000000000  0.0833330000000032  0.1666669999999970  
  0.3125000000000000  0.0833330000000032  0.5000000000000000  
  0.3125000000000000  0.0833330000000032  0.8333330000000030  
  0.3125000000000000  0.4166669999999970  0.1666669999999970  
  0.3125000000000000  0.4166669999999970  0.5000000000000000  
  0.3125000000000000  0.4166669999999970  0.8333330000000030  
  0.3125000000000000  0.7500000000000000  0.1666669999999970  
  0.3125000000000000  0.7500000000000000  0.5000000000000000  
  0.3125000000000000  0.7500000000000000  0.8333330000000030  
  0.5625000000000000  0.0833330000000032  0.1666669999999970  
  0.5625000000000000  0.0833330000000032  0.5000000000000000  
  0.5625000000000000  0.0833330000000032  0.8333330000000030  
  0.5625000000000000  0.4166669999999970  0.1666669999999970  
  0.5625000000000000  0.4166669999999970  0.5000000000000000  
  0.5625000000000000  0.4166669999999970  0.8333330000000030  
  0.5625000000000000  0.7500000000000000  0.1666669999999970  
  0.5625000000000000  0.7500000000000000  0.5000000000000000  
  0.5625000000000000  0.7500000000000000  0.8333330000000030  
  0.8125000000000000  0.0833330000000032  0.1666669999999970  
  0.8125000000000000  0.0833330000000032  0.5000000000000000  
  0.8125000000000000  0.0833330000000032  0.8333330000000030  
  0.8125000000000000  0.4166669999999970  0.1666669999999970  
  0.8125000000000000  0.4166669999999970  0.5000000000000000  
  0.8125000000000000  0.4166669999999970  0.8333330000000030  
  0.8125000000000000  0.7500000000000000  0.1666669999999970  
  0.8125000000000000  0.7500000000000000  0.5000000000000000  
  0.8125000000000000  0.7500000000000000  0.8333330000000030  
  0.1875000000000000  0.2500000000000000  0.1666669999999970  
  0.1875000000000000  0.2500000000000000  0.5000000000000000  
  0.1875000000000000  0.2500000000000000  0.8333330000000030  
  0.1875000000000000  0.5833330000000030  0.1666669999999970  
  0.1875000000000000  0.5833330000000030  0.5000000000000000  
  0.1875000000000000  0.5833330000000030  0.8333330000000030  
  0.1875000000000000  0.9166669999999970  0.1666669999999970  
  0.1875000000000000  0.9166669999999970  0.5000000000000000  
  0.1875000000000000  0.9166669999999970  0.8333330000000030  
  0.4375000000000000  0.2500000000000000  0.1666669999999970  
  0.4375000000000000  0.2500000000000000  0.5000000000000000  
  0.4375000000000000  0.2500000000000000  0.8333330000000030  
  0.4375000000000000  0.5833330000000030  0.1666669999999970  
  0.4375000000000000  0.5833330000000030  0.5000000000000000  
  0.4375000000000000  0.5833330000000030  0.8333330000000030  
  0.4375000000000000  0.9166669999999970  0.1666669999999970  
  0.4375000000000000  0.9166669999999970  0.5000000000000000  
  0.4375000000000000  0.9166669999999970  0.8333330000000030  
  0.6875000000000000  0.2500000000000000  0.1666669999999970  
  0.6875000000000000  0.2500000000000000  0.5000000000000000  
  0.6875000000000000  0.2500000000000000  0.8333330000000030  
  0.6875000000000000  0.5833330000000030  0.1666669999999970  
  0.6875000000000000  0.5833330000000030  0.5000000000000000  
  0.6875000000000000  0.5833330000000030  0.8333330000000030  
  0.6875000000000000  0.9166669999999970  0.1666669999999970  
  0.6875000000000000  0.9166669999999970  0.5000000000000000  
  0.6875000000000000  0.9166669999999970  0.8333330000000030  
  0.9375000000000000  0.2500000000000000  0.1666669999999970  
  0.9375000000000000  0.2500000000000000  0.5000000000000000  
  0.9375000000000000  0.2500000000000000  0.8333330000000030  
  0.9375000000000000  0.5833330000000030  0.1666669999999970  
  0.9375000000000000  0.5833330000000030  0.5000000000000000  
  0.9375000000000000  0.5833330000000030  0.8333330000000030  
  0.9375000000000000  0.9166669999999970  0.1666669999999970  
  0.9375000000000000  0.9166669999999970  0.5000000000000000  
  0.9375000000000000  0.9166669999999970  0.8333330000000030  
  0.2148159999999990  0.1267479999999990  0.0938230000000004  
  0.2148159999999990  0.1267479999999990  0.4271570000000010  
  0.2148159999999990  0.1267479999999990  0.7604899999999970  
  0.2148159999999990  0.4600820000000000  0.0938230000000004  
  0.2148159999999990  0.4600820000000000  0.4271570000000010  
  0.2148159999999990  0.4600820000000000  0.7604899999999970  
  0.2148159999999990  0.7934150000000030  0.0938230000000004  
  0.2148159999999990  0.7934150000000030  0.4271570000000010  
  0.2148159999999990  0.7934150000000030  0.7604899999999970  
  0.4648159999999990  0.1267479999999990  0.0938230000000004  
  0.4648159999999990  0.1267479999999990  0.4271570000000010  
  0.4648159999999990  0.1267479999999990  0.7604899999999970  
  0.4648159999999990  0.4600820000000000  0.0938230000000004  
  0.4648159999999990  0.4600820000000000  0.4271570000000010  
  0.4648159999999990  0.4600820000000000  0.7604899999999970  
  0.4648159999999990  0.7934150000000030  0.0938230000000004  
  0.4648159999999990  0.7934150000000030  0.4271570000000010  
  0.4648159999999990  0.7934150000000030  0.7604899999999970  
  0.7148159999999990  0.1267479999999990  0.0938230000000004  
  0.7148159999999990  0.1267479999999990  0.4271570000000010  
  0.7148159999999990  0.1267479999999990  0.7604899999999970  
  0.7148159999999990  0.4600820000000000  0.0938230000000004  
  0.7148159999999990  0.4600820000000000  0.4271570000000010  
  0.7148159999999990  0.4600820000000000  0.7604899999999970  
  0.7148159999999990  0.7934150000000030  0.0938230000000004  
  0.7148159999999990  0.7934150000000030  0.4271570000000010  
  0.7148159999999990  0.7934150000000030  0.7604899999999970  
  0.9648159999999990  0.1267479999999990  0.0938230000000004  
  0.9648159999999990  0.1267479999999990  0.4271570000000010  
  0.9648159999999990  0.1267479999999990  0.7604899999999970  
  0.9648159999999990  0.4600820000000000  0.0938230000000004  
  0.9648159999999990  0.4600820000000000  0.4271570000000010  
  0.9648159999999990  0.4600820000000000  0.7604899999999970  
  0.9648159999999990  0.7934150000000030  0.0938230000000004  
  0.9648159999999990  0.7934150000000030  0.4271570000000010  
  0.9648159999999990  0.7934150000000030  0.7604899999999970  
  0.0898159999999990  0.2934150000000030  0.0938230000000004  
  0.0898159999999990  0.2934150000000030  0.4271570000000010  
  0.0898159999999990  0.2934150000000030  0.7604899999999970  
  0.0898159999999990  0.6267479999999990  0.0938230000000004  
  0.0898159999999990  0.6267479999999990  0.4271570000000010  
  0.0898159999999990  0.6267479999999990  0.7604899999999970  
  0.0898159999999990  0.9600820000000000  0.0938230000000004  
  0.0898159999999990  0.9600820000000000  0.4271570000000010  
  0.0898159999999990  0.9600820000000000  0.7604899999999970  
  0.3398159999999990  0.2934150000000030  0.0938230000000004  
  0.3398159999999990  0.2934150000000030  0.4271570000000010  
  0.3398159999999990  0.2934150000000030  0.7604899999999970  
  0.3398159999999990  0.6267479999999990  0.0938230000000004  
  0.3398159999999990  0.6267479999999990  0.4271570000000010  
  0.3398159999999990  0.6267479999999990  0.7604899999999970  
  0.3398159999999990  0.9600820000000000  0.0938230000000004  
  0.3398159999999990  0.9600820000000000  0.4271570000000010  
  0.3398159999999990  0.9600820000000000  0.7604899999999970  
  0.5898159999999990  0.2934150000000030  0.0938230000000004  
  0.5898159999999990  0.2934150000000030  0.4271570000000010  
  0.5898159999999990  0.2934150000000030  0.7604899999999970  
  0.5898159999999990  0.6267479999999990  0.0938230000000004  
  0.5898159999999990  0.6267479999999990  0.4271570000000010  
  0.5898159999999990  0.6267479999999990  0.7604899999999970  
  0.5898159999999990  0.9600820000000000  0.0938230000000004  
  0.5898159999999990  0.9600820000000000  0.4271570000000010  
  0.5898159999999990  0.9600820000000000  0.7604899999999970  
  0.8398159999999990  0.2934150000000030  0.0938230000000004  
  0.8398159999999990  0.2934150000000030  0.4271570000000010  
  0.8398159999999990  0.2934150000000030  0.7604899999999970  
  0.8398159999999990  0.6267479999999990  0.0938230000000004  
  0.8398159999999990  0.6267479999999990  0.4271570000000010  
  0.8398159999999990  0.6267479999999990  0.7604899999999970  
  0.8398159999999990  0.9600820000000000  0.0938230000000004  
  0.8398159999999990  0.9600820000000000  0.4271570000000010  
  0.8398159999999990  0.9600820000000000  0.7604899999999970  
  0.1601840000000010  0.0399180000000001  0.2395100000000030  
  0.1601840000000010  0.0399180000000001  0.5728429999999990  
  0.1601840000000010  0.0399180000000001  0.9061770000000000  
  0.1601840000000010  0.3732520000000010  0.2395100000000030  
  0.1601840000000010  0.3732520000000010  0.5728429999999990  
  0.1601840000000010  0.3732520000000010  0.9061770000000000  
  0.1601840000000010  0.7065849999999970  0.2395100000000030  
  0.1601840000000010  0.7065849999999970  0.5728429999999990  
  0.1601840000000010  0.7065849999999970  0.9061770000000000  
  0.4101840000000010  0.0399180000000001  0.2395100000000030  
  0.4101840000000010  0.0399180000000001  0.5728429999999990  
  0.4101840000000010  0.0399180000000001  0.9061770000000000  
  0.4101840000000010  0.3732520000000010  0.2395100000000030  
  0.4101840000000010  0.3732520000000010  0.5728429999999990  
  0.4101840000000010  0.3732520000000010  0.9061770000000000  
  0.4101840000000010  0.7065849999999970  0.2395100000000030  
  0.4101840000000010  0.7065849999999970  0.5728429999999990  
  0.4101840000000010  0.7065849999999970  0.9061770000000000  
  0.6601840000000010  0.0399180000000001  0.2395100000000030  
  0.6601840000000010  0.0399180000000001  0.5728429999999990  
  0.6601840000000010  0.0399180000000001  0.9061770000000000  
  0.6601840000000010  0.3732520000000010  0.2395100000000030  
  0.6601840000000010  0.3732520000000010  0.5728429999999990  
  0.6601840000000010  0.3732520000000010  0.9061770000000000  
  0.6601840000000010  0.7065849999999970  0.2395100000000030  
  0.6601840000000010  0.7065849999999970  0.5728429999999990  
  0.6601840000000010  0.7065849999999970  0.9061770000000000  
  0.9101840000000010  0.0399180000000001  0.2395100000000030  
  0.9101840000000010  0.0399180000000001  0.5728429999999990  
  0.9101840000000010  0.0399180000000001  0.9061770000000000  
  0.9101840000000010  0.3732520000000010  0.2395100000000030  
  0.9101840000000010  0.3732520000000010  0.5728429999999990  
  0.9101840000000010  0.3732520000000010  0.9061770000000000  
  0.9101840000000010  0.7065849999999970  0.2395100000000030  
  0.9101840000000010  0.7065849999999970  0.5728429999999990  
  0.9101840000000010  0.7065849999999970  0.9061770000000000  
  0.0351840000000010  0.2065849999999970  0.2395100000000030  
  0.0351840000000010  0.2065849999999970  0.5728429999999990  
  0.0351840000000010  0.2065849999999970  0.9061770000000000  
  0.0351840000000010  0.5399180000000000  0.2395100000000030  
  0.0351840000000010  0.5399180000000000  0.5728429999999990  
  0.0351840000000010  0.5399180000000000  0.9061770000000000  
  0.0351840000000010  0.8732520000000010  0.2395100000000030  
  0.0351840000000010  0.8732520000000010  0.5728429999999990  
  0.0351840000000010  0.8732520000000010  0.9061770000000000  
  0.2851840000000010  0.2065849999999970  0.2395100000000030  
  0.2851840000000010  0.2065849999999970  0.5728429999999990  
  0.2851840000000010  0.2065849999999970  0.9061770000000000  
  0.2851840000000010  0.5399180000000000  0.2395100000000030  
  0.2851840000000010  0.5399180000000000  0.5728429999999990  
  0.2851840000000010  0.5399180000000000  0.9061770000000000  
  0.2851840000000010  0.8732520000000010  0.2395100000000030  
  0.2851840000000010  0.8732520000000010  0.5728429999999990  
  0.2851840000000010  0.8732520000000010  0.9061770000000000  
  0.5351840000000010  0.2065849999999970  0.2395100000000030  
  0.5351840000000010  0.2065849999999970  0.5728429999999990  
  0.5351840000000010  0.2065849999999970  0.9061770000000000  
  0.5351840000000010  0.5399180000000000  0.2395100000000030  
  0.5351840000000010  0.5399180000000000  0.5728429999999990  
  0.5351840000000010  0.5399180000000000  0.9061770000000000  
  0.5351840000000010  0.8732520000000010  0.2395100000000030  
  0.5351840000000010  0.8732520000000010  0.5728429999999990  
  0.5351840000000010  0.8732520000000010  0.9061770000000000  
  0.7851840000000010  0.2065849999999970  0.2395100000000030  
  0.7851840000000010  0.2065849999999970  0.5728429999999990  
  0.7851840000000010  0.2065849999999970  0.9061770000000000  
  0.7851840000000010  0.5399180000000000  0.2395100000000030  
  0.7851840000000010  0.5399180000000000  0.5728429999999990  
  0.7851840000000010  0.5399180000000000  0.9061770000000000  
  0.7851840000000010  0.8732520000000010  0.2395100000000030  
  0.7851840000000010  0.8732520000000010  0.5728429999999990  
  0.7851840000000010  0.8732520000000010  0.9061770000000000  
