Sb16 Xe8 Cl8 F88                        
   1.00000000000000     
    18.0952698175829383    0.0000000000000000    0.0000000000000000
     0.0000000000000000    7.5482201678833745    0.0000000000000000
     0.0000000000000000    0.0000000000000000   17.3810096463252606
   Sb   Xe   Cl   F 
    16     8     8    88
Direct
  0.8320775179720936  0.1438714971350026  0.4134356499236567
  0.1679224820279064  0.8561285028649974  0.9134356499236567
  0.6679224820279064  0.6438714971350026  0.9134356499236567
  0.3320775179720936  0.3561285028649974  0.4134356499236567
  0.7005061626645765  0.5572208094643331  0.3850623388767861
  0.2994938373354234  0.4427791905356670  0.8850623388767861
  0.7994938373354235  0.0572208094643330  0.8850623388767861
  0.2005061626645766  0.9427791905356669  0.3850623388767861
  0.5312412633414997  0.4466138752065262  0.1578811488893110
  0.4687587366585003  0.5533861247934738  0.6578811488893109
  0.9687587366585003  0.9466138752065262  0.6578811488893109
  0.0312412633414997  0.0533861247934738  0.1578811488893110
  0.4024898554920889  0.8651845391456282  0.1367071743593238
  0.5975101445079111  0.1348154608543646  0.6367071743593238
  0.0975101445079111  0.3651845391456354  0.6367071743593238
  0.9024898554920889  0.6348154608543718  0.1367071743593238
  0.9773880052591692  0.6568412826769491  0.3944129686740088
  0.0226119947408308  0.3431587173230509  0.8944129686740088
  0.5226119947408308  0.1568412826769491  0.8944129686740088
  0.4773880052591692  0.8431587173230509  0.3944129686740088
  0.2554584799183540  0.3414604966254828  0.1601837436866887
  0.7445415200816460  0.6585395033745172  0.6601837436866888
  0.2445415200816460  0.8414604966254828  0.6601837436866888
  0.7554584799183540  0.1585395033745172  0.1601837436866887
  0.0459769457562031  0.3924141199574323  0.3816674148345659
  0.9540230542437969  0.6075858800425677  0.8816674148345659
  0.4540230542437969  0.8924141199574323  0.8816674148345659
  0.5459769457562031  0.1075858800425677  0.3816674148345659
  0.1867494263854221  0.6078266284256743  0.1576996760199022
  0.8132505736145779  0.3921733715743258  0.6576996760199023
  0.3132505736145779  0.1078266284256742  0.6576996760199023
  0.6867494263854221  0.8921733715743257  0.1576996760199022
  0.8904817277019560  0.2737409649916298  0.4843211996197243
  0.1095182722980440  0.7262590350083702  0.9843211996197242
  0.6095182722980440  0.7737409649916298  0.9843211996197242
  0.3904817277019560  0.2262590350083702  0.4843211996197243
  0.7864366098701664  0.0178364315031984  0.4956912864737715
  0.2135633901298336  0.9821635684968015  0.9956912864737715
  0.7135633901298336  0.5178364315031985  0.9956912864737715
  0.2864366098701664  0.4821635684968016  0.4956912864737715
  0.7632205210694297  0.0446646979304583  0.3425392337584043
  0.2367794789305702  0.9553353020695416  0.8425392337584042
  0.7367794789305703  0.5446646979304584  0.8425392337584042
  0.2632205210694298  0.4553353020695417  0.3425392337584043
  0.7521868648794335  0.3374081314275211  0.4325624904453675
  0.2478131351205664  0.6625918685724789  0.9325624904453674
  0.7478131351205665  0.8374081314275211  0.9325624904453674
  0.2521868648794336  0.1625918685724789  0.4325624904453675
  0.8690156148002088  0.2870793692774845  0.3328453244860965
  0.1309843851997912  0.7129206307225155  0.8328453244861036
  0.6309843851997912  0.7870793692774845  0.8328453244861036
  0.3690156148002088  0.2129206307225155  0.3328453244860965
  0.9063398160659546  0.9640451388012431  0.3962092138708311
  0.0936601839340454  0.0359548611987568  0.8962092138708310
  0.5936601839340454  0.4640451388012432  0.8962092138708310
  0.4063398160659547  0.5359548611987569  0.3962092138708311
  0.6113075626486298  0.4212023045370651  0.3936687406785985
  0.3886924373513701  0.5787976954629349  0.8936687406785985
  0.8886924373513702  0.9212023045370651  0.8936687406785985
  0.1113075626486299  0.0787976954629349  0.3936687406785985
  0.6502210898212074  0.7570168308457038  0.3425369527101914
  0.3497789101787927  0.2429831691542962  0.8425369527101915
  0.8497789101787926  0.2570168308457038  0.8425369527101915
  0.1502210898212073  0.7429831691542962  0.3425369527101914
  0.7966715087483494  0.6596483249122023  0.3843666529792653
  0.2033284912516506  0.3403516750877978  0.8843666529792653
  0.7033284912516506  0.1596483249122022  0.8843666529792653
  0.2966715087483494  0.8403516750877977  0.3843666529792653
  0.6876836512355958  0.6335860480855638  0.4883468333941445
  0.3123163487644041  0.3664139519144362  0.9883468333941445
  0.8123163487644042  0.1335860480855639  0.9883468333941445
  0.1876836512355959  0.8664139519144362  0.4883468333941445
  0.7189195430097262  0.4528231083410056  0.2874175433591090
  0.2810804569902739  0.5471768916589943  0.7874175433591091
  0.7810804569902738  0.9528231083410057  0.7874175433591091
  0.2189195430097261  0.0471768916589944  0.2874175433591090
  0.4342777592696071  0.3506488793542786  0.1574982924391441
  0.5657222407303929  0.6493511206457213  0.6574982924391440
  0.0657222407303929  0.8506488793542787  0.6574982924391440
  0.9342777592696071  0.1493511206457213  0.1574982924391441
  0.5799656794010841  0.2379993556775522  0.1941688464929277
  0.4200343205989159  0.7620006443224477  0.6941688464929276
  0.9200343205989159  0.7379993556775523  0.6941688464929276
  0.0799656794010842  0.2620006443224477  0.1941688464929277
  0.4840624412148771  0.6779606473175521  0.1167840644140299
  0.5159375587851230  0.3220393526824479  0.6167840644140299
  0.0159375587851230  0.1779606473175521  0.6167840644140299
  0.9840624412148770  0.8220393526824479  0.1167840644140299
  0.6220621245982365  0.5769255904909243  0.1523146618593116
  0.3779378754017635  0.4230744095090758  0.6523146618593116
  0.8779378754017635  0.0769255904909242  0.6523146618593116
  0.1220621245982365  0.9230744095090757  0.1523146618593116
  0.5143174699150412  0.5402365191253374  0.2580330554600047
  0.4856825300849588  0.4597634808746627  0.7580330554600047
  0.9856825300849588  0.0402365191253373  0.7580330554600047
  0.0143174699150412  0.9597634808746626  0.2580330554600047
  0.5421769218864542  0.3840812333370448  0.0528425490578922
  0.4578230781135458  0.6159187666629551  0.5528425490578922
  0.9578230781135458  0.8840812333370449  0.5528425490578922
  0.0421769218864542  0.1159187666629552  0.0528425490578922
  0.3486627109143852  0.7485218162203507  0.0583991414613015
  0.6513372890856148  0.2514781837796491  0.5583991414613015
  0.1513372890856148  0.2485218162203509  0.5583991414613015
  0.8486627109143852  0.7514781837796493  0.0583991414613015
  0.4655510534110477  0.9578755007406961  0.2140047154776089
  0.5344489465889523  0.0421244992593039  0.7140047154776090
  0.0344489465889523  0.4578755007406961  0.7140047154776090
  0.9655510534110477  0.5421244992593039  0.2140047154776089
  0.4529256714827060  0.0026122626661516  0.0616915160976765
  0.5470743285172941  0.9973877373338484  0.5616915160976765
  0.0470743285172940  0.5026122626661516  0.5616915160976765
  0.9529256714827059  0.4973877373338484  0.0616915160976765
  0.3613924259360201  0.7084037770640348  0.2107168725311077
  0.6386075740639799  0.2915962229359723  0.7107168725311078
  0.1386075740639799  0.2084037770640277  0.7107168725311078
  0.8613924259360201  0.7915962229359652  0.2107168725311077
  0.3257643663456714  0.0406101503308824  0.1523806976692349
  0.6742356336543287  0.9593898496691176  0.6523806976692349
  0.1742356336543287  0.5406101503308824  0.6523806976692349
  0.8257643663456713  0.4593898496691176  0.1523806976692349
 
  0.00000000E+00  0.00000000E+00  0.00000000E+00
  0.00000000E+00  0.00000000E+00  0.00000000E+00
  0.00000000E+00  0.00000000E+00  0.00000000E+00
  0.00000000E+00  0.00000000E+00  0.00000000E+00
  0.00000000E+00  0.00000000E+00  0.00000000E+00
  0.00000000E+00  0.00000000E+00  0.00000000E+00
  0.00000000E+00  0.00000000E+00  0.00000000E+00
  0.00000000E+00  0.00000000E+00  0.00000000E+00
  0.00000000E+00  0.00000000E+00  0.00000000E+00
  0.00000000E+00  0.00000000E+00  0.00000000E+00
  0.00000000E+00  0.00000000E+00  0.00000000E+00
  0.00000000E+00  0.00000000E+00  0.00000000E+00
  0.00000000E+00  0.00000000E+00  0.00000000E+00
  0.00000000E+00  0.00000000E+00  0.00000000E+00
  0.00000000E+00  0.00000000E+00  0.00000000E+00
  0.00000000E+00  0.00000000E+00  0.00000000E+00
  0.00000000E+00  0.00000000E+00  0.00000000E+00
  0.00000000E+00  0.00000000E+00  0.00000000E+00
  0.00000000E+00  0.00000000E+00  0.00000000E+00
  0.00000000E+00  0.00000000E+00  0.00000000E+00
  0.00000000E+00  0.00000000E+00  0.00000000E+00
  0.00000000E+00  0.00000000E+00  0.00000000E+00
  0.00000000E+00  0.00000000E+00  0.00000000E+00
  0.00000000E+00  0.00000000E+00  0.00000000E+00
  0.00000000E+00  0.00000000E+00  0.00000000E+00
  0.00000000E+00  0.00000000E+00  0.00000000E+00
  0.00000000E+00  0.00000000E+00  0.00000000E+00
  0.00000000E+00  0.00000000E+00  0.00000000E+00
  0.00000000E+00  0.00000000E+00  0.00000000E+00
  0.00000000E+00  0.00000000E+00  0.00000000E+00
  0.00000000E+00  0.00000000E+00  0.00000000E+00
  0.00000000E+00  0.00000000E+00  0.00000000E+00
  0.00000000E+00  0.00000000E+00  0.00000000E+00
  0.00000000E+00  0.00000000E+00  0.00000000E+00
  0.00000000E+00  0.00000000E+00  0.00000000E+00
  0.00000000E+00  0.00000000E+00  0.00000000E+00
  0.00000000E+00  0.00000000E+00  0.00000000E+00
  0.00000000E+00  0.00000000E+00  0.00000000E+00
  0.00000000E+00  0.00000000E+00  0.00000000E+00
  0.00000000E+00  0.00000000E+00  0.00000000E+00
  0.00000000E+00  0.00000000E+00  0.00000000E+00
  0.00000000E+00  0.00000000E+00  0.00000000E+00
  0.00000000E+00  0.00000000E+00  0.00000000E+00
  0.00000000E+00  0.00000000E+00  0.00000000E+00
  0.00000000E+00  0.00000000E+00  0.00000000E+00
  0.00000000E+00  0.00000000E+00  0.00000000E+00
  0.00000000E+00  0.00000000E+00  0.00000000E+00
  0.00000000E+00  0.00000000E+00  0.00000000E+00
  0.00000000E+00  0.00000000E+00  0.00000000E+00
  0.00000000E+00  0.00000000E+00  0.00000000E+00
  0.00000000E+00  0.00000000E+00  0.00000000E+00
  0.00000000E+00  0.00000000E+00  0.00000000E+00
  0.00000000E+00  0.00000000E+00  0.00000000E+00
  0.00000000E+00  0.00000000E+00  0.00000000E+00
  0.00000000E+00  0.00000000E+00  0.00000000E+00
  0.00000000E+00  0.00000000E+00  0.00000000E+00
  0.00000000E+00  0.00000000E+00  0.00000000E+00
  0.00000000E+00  0.00000000E+00  0.00000000E+00
  0.00000000E+00  0.00000000E+00  0.00000000E+00
  0.00000000E+00  0.00000000E+00  0.00000000E+00
  0.00000000E+00  0.00000000E+00  0.00000000E+00
  0.00000000E+00  0.00000000E+00  0.00000000E+00
  0.00000000E+00  0.00000000E+00  0.00000000E+00
  0.00000000E+00  0.00000000E+00  0.00000000E+00
  0.00000000E+00  0.00000000E+00  0.00000000E+00
  0.00000000E+00  0.00000000E+00  0.00000000E+00
  0.00000000E+00  0.00000000E+00  0.00000000E+00
  0.00000000E+00  0.00000000E+00  0.00000000E+00
  0.00000000E+00  0.00000000E+00  0.00000000E+00
  0.00000000E+00  0.00000000E+00  0.00000000E+00
  0.00000000E+00  0.00000000E+00  0.00000000E+00
  0.00000000E+00  0.00000000E+00  0.00000000E+00
  0.00000000E+00  0.00000000E+00  0.00000000E+00
  0.00000000E+00  0.00000000E+00  0.00000000E+00
  0.00000000E+00  0.00000000E+00  0.00000000E+00
  0.00000000E+00  0.00000000E+00  0.00000000E+00
  0.00000000E+00  0.00000000E+00  0.00000000E+00
  0.00000000E+00  0.00000000E+00  0.00000000E+00
  0.00000000E+00  0.00000000E+00  0.00000000E+00
  0.00000000E+00  0.00000000E+00  0.00000000E+00
  0.00000000E+00  0.00000000E+00  0.00000000E+00
  0.00000000E+00  0.00000000E+00  0.00000000E+00
  0.00000000E+00  0.00000000E+00  0.00000000E+00
  0.00000000E+00  0.00000000E+00  0.00000000E+00
  0.00000000E+00  0.00000000E+00  0.00000000E+00
  0.00000000E+00  0.00000000E+00  0.00000000E+00
  0.00000000E+00  0.00000000E+00  0.00000000E+00
  0.00000000E+00  0.00000000E+00  0.00000000E+00
  0.00000000E+00  0.00000000E+00  0.00000000E+00
  0.00000000E+00  0.00000000E+00  0.00000000E+00
  0.00000000E+00  0.00000000E+00  0.00000000E+00
  0.00000000E+00  0.00000000E+00  0.00000000E+00
  0.00000000E+00  0.00000000E+00  0.00000000E+00
  0.00000000E+00  0.00000000E+00  0.00000000E+00
  0.00000000E+00  0.00000000E+00  0.00000000E+00
  0.00000000E+00  0.00000000E+00  0.00000000E+00
  0.00000000E+00  0.00000000E+00  0.00000000E+00
  0.00000000E+00  0.00000000E+00  0.00000000E+00
  0.00000000E+00  0.00000000E+00  0.00000000E+00
  0.00000000E+00  0.00000000E+00  0.00000000E+00
  0.00000000E+00  0.00000000E+00  0.00000000E+00
  0.00000000E+00  0.00000000E+00  0.00000000E+00
  0.00000000E+00  0.00000000E+00  0.00000000E+00
  0.00000000E+00  0.00000000E+00  0.00000000E+00
  0.00000000E+00  0.00000000E+00  0.00000000E+00
  0.00000000E+00  0.00000000E+00  0.00000000E+00
  0.00000000E+00  0.00000000E+00  0.00000000E+00
  0.00000000E+00  0.00000000E+00  0.00000000E+00
  0.00000000E+00  0.00000000E+00  0.00000000E+00
  0.00000000E+00  0.00000000E+00  0.00000000E+00
  0.00000000E+00  0.00000000E+00  0.00000000E+00
  0.00000000E+00  0.00000000E+00  0.00000000E+00
  0.00000000E+00  0.00000000E+00  0.00000000E+00
  0.00000000E+00  0.00000000E+00  0.00000000E+00
  0.00000000E+00  0.00000000E+00  0.00000000E+00
  0.00000000E+00  0.00000000E+00  0.00000000E+00
  0.00000000E+00  0.00000000E+00  0.00000000E+00
  0.00000000E+00  0.00000000E+00  0.00000000E+00
  0.00000000E+00  0.00000000E+00  0.00000000E+00
  0.00000000E+00  0.00000000E+00  0.00000000E+00
