Sb16 Xe8 Cl8 F88                        
   1.00000000000000     
    18.0300388127669251    0.0000000000000000    0.0000000000000000
     0.0000000000000000    7.5353915840309096    0.0000000000000000
     0.0000000000000000    0.0000000000000000   17.3221611569190159
   Sb   Xe   Cl   F 
    16     8     8    88
Direct
  0.8316228898980227  0.1435241106707873  0.4136375648867280
  0.1683771101019772  0.8564758893292128  0.9136375648867281
  0.6683771101019773  0.6435241106707872  0.9136375648867281
  0.3316228898980228  0.3564758893292128  0.4136375648867280
  0.7003235085402363  0.5582472217333281  0.3848395885297723
  0.2996764914597638  0.4417527782666720  0.8848395885297723
  0.7996764914597637  0.0582472217333280  0.8848395885297723
  0.2003235085402362  0.9417527782666719  0.3848395885297723
  0.5314464461913664  0.4455757483964091  0.1582966497136637
  0.4685535538086337  0.5544242516035908  0.6582966497136636
  0.9685535538086336  0.9455757483964092  0.6582966497136636
  0.0314464461913663  0.0544242516035909  0.1582966497136637
  0.4025767204354342  0.8648884668054470  0.1366890727390742
  0.5974232795645658  0.1351115331945459  0.6366890727390743
  0.0974232795645658  0.3648884668054541  0.6366890727390743
  0.9025767204354342  0.6351115331945530  0.1366890727390742
  0.9773541836240678  0.6570941426609139  0.3944636371431964
  0.0226458163759323  0.3429058573390862  0.8944636371431962
  0.5226458163759322  0.1570941426609138  0.8944636371431962
  0.4773541836240677  0.8429058573390861  0.3944636371431964
  0.2555352455548502  0.3414162763843301  0.1604247229882466
  0.7444647544451498  0.6585837236156699  0.6604247229882465
  0.2444647544451498  0.8414162763843301  0.6604247229882465
  0.7555352455548502  0.1585837236156699  0.1604247229882466
  0.0459621989513435  0.3919282464910290  0.3814211424883121
  0.9540378010486564  0.6080717535089709  0.8814211424883123
  0.4540378010486565  0.8919282464910291  0.8814211424883123
  0.5459621989513436  0.1080717535089710  0.3814211424883121
  0.1868637634464355  0.6082042164415118  0.1577036462963623
  0.8131362365535646  0.3917957835584882  0.6577036462963624
  0.3131362365535645  0.1082042164415118  0.6577036462963624
  0.6868637634464354  0.8917957835584882  0.1577036462963623
  0.8907353683279035  0.2746174762790072  0.4849765368294434
  0.1092646316720965  0.7253825237209928  0.9849765368294434
  0.6092646316720965  0.7746174762790072  0.9849765368294434
  0.3907353683279035  0.2253825237209927  0.4849765368294434
  0.7863405681321507  0.0179379881205965  0.4959854584947992
  0.2136594318678493  0.9820620118794036  0.9959854584947992
  0.7136594318678493  0.5179379881205964  0.9959854584947992
  0.2863405681321508  0.4820620118794035  0.4959854584947992
  0.7629723946431649  0.0445961762615538  0.3421636078674801
  0.2370276053568351  0.9554038237384461  0.8421636078674800
  0.7370276053568351  0.5445961762615539  0.8421636078674800
  0.2629723946431649  0.4554038237384462  0.3421636078674801
  0.7525184142929088  0.3369177162936329  0.4323403750369585
  0.2474815857070912  0.6630822837063671  0.9323403750369584
  0.7474815857070912  0.8369177162936329  0.9323403750369584
  0.2525184142929088  0.1630822837063671  0.4323403750369585
  0.8690537362475085  0.2889104900336258  0.3319104263694694
  0.1309462637524916  0.7110895099663742  0.8319104263694765
  0.6309462637524915  0.7889104900336258  0.8319104263694765
  0.3690537362475084  0.2110895099663742  0.3319104263694694
  0.9061165143341063  0.9638486042227887  0.3962927334858755
  0.0938834856658936  0.0361513957772113  0.8962927334858757
  0.5938834856658937  0.4638486042227888  0.8962927334858757
  0.4061165143341063  0.5361513957772113  0.3962927334858755
  0.6110660955522729  0.4207858206753723  0.3936993733574343
  0.3889339044477270  0.5792141793246276  0.8936993733574343
  0.8889339044477271  0.9207858206753724  0.8936993733574343
  0.1110660955522730  0.0792141793246277  0.3936993733574343
  0.6503894578072715  0.7565495303334161  0.3424034401003543
  0.3496105421927284  0.2434504696665839  0.8424034401003542
  0.8496105421927285  0.2565495303334160  0.8424034401003542
  0.1503894578072716  0.7434504696665839  0.3424034401003543
  0.7970454682742095  0.6597852032092629  0.3842688077121614
  0.2029545317257904  0.3402147967907370  0.8842688077121614
  0.7029545317257905  0.1597852032092630  0.8842688077121614
  0.2970454682742095  0.8402147967907371  0.3842688077121614
  0.6878147122989469  0.6336134458422760  0.4890676762369497
  0.3121852877010532  0.3663865541577240  0.9890676762369498
  0.8121852877010531  0.1336134458422760  0.9890676762369498
  0.1878147122989468  0.8663865541577240  0.4890676762369497
  0.7192214089139320  0.4525507190584735  0.2870961959755602
  0.2807785910860680  0.5474492809415263  0.7870961959755601
  0.7807785910860680  0.9525507190584737  0.7870961959755601
  0.2192214089139320  0.0474492809415265  0.2870961959755602
  0.4335995639363596  0.3502780969451418  0.1575299517250252
  0.5664004360636404  0.6497219030548582  0.6575299517250252
  0.0664004360636404  0.8502780969451418  0.6575299517250252
  0.9335995639363596  0.1497219030548582  0.1575299517250252
  0.5798009765655624  0.2382672704289252  0.1941137340530628
  0.4201990234344374  0.7617327295710747  0.6941137340530628
  0.9201990234344376  0.7382672704289253  0.6941137340530628
  0.0798009765655625  0.2617327295710749  0.1941137340530628
  0.4835537016374887  0.6782606020818317  0.1172950713375164
  0.5164462983625113  0.3217393979181682  0.6172950713375164
  0.0164462983625113  0.1782606020818317  0.6172950713375164
  0.9835537016374887  0.8217393979181683  0.1172950713375164
  0.6224435662816313  0.5774993138366015  0.1522884473892672
  0.3775564337183686  0.4225006861633985  0.6522884473892672
  0.8775564337183687  0.0774993138366015  0.6522884473892672
  0.1224435662816314  0.9225006861633985  0.1522884473892672
  0.5139835109767080  0.5408852713947949  0.2583011534377842
  0.4860164890232920  0.4591147286052050  0.7583011534377843
  0.9860164890232920  0.0408852713947949  0.7583011534377843
  0.0139835109767080  0.9591147286052051  0.2583011534377842
  0.5421300875027737  0.3838006053915191  0.0520241927371151
  0.4578699124972264  0.6161993946084808  0.5520241927371150
  0.9578699124972263  0.8838006053915192  0.5520241927371150
  0.0421300875027736  0.1161993946084809  0.0520241927371151
  0.3483943552261664  0.7473160045548702  0.0577874925185936
  0.6516056447738334  0.2526839954451297  0.5577874925185935
  0.1516056447738335  0.2473160045548703  0.5577874925185935
  0.8483943552261666  0.7526839954451298  0.0577874925185936
  0.4660918138387580  0.9585753170332864  0.2144042615646870
  0.5339081861612420  0.0414246829667136  0.7144042615646869
  0.0339081861612420  0.4585753170332864  0.7144042615646869
  0.9660918138387580  0.5414246829667136  0.2144042615646870
  0.4532563338137976  0.0029575089816310  0.0613886493962958
  0.5467436661862024  0.9970424910183692  0.5613886493962957
  0.0467436661862024  0.5029575089816308  0.5613886493962957
  0.9532563338137976  0.4970424910183690  0.0613886493962958
  0.3613136423442196  0.7064424195755745  0.2111625087550127
  0.6386863576557803  0.2935575804244327  0.7111625087550126
  0.1386863576557804  0.2064424195755673  0.7111625087550126
  0.8613136423442197  0.7935575804244255  0.2111625087550127
  0.3261549697862687  0.0404500595042424  0.1524138808337994
  0.6738450302137312  0.9595499404957576  0.6524138808337995
  0.1738450302137313  0.5404500595042424  0.6524138808337995
  0.8261549697862688  0.4595499404957576  0.1524138808337994
 
  0.00000000E+00  0.00000000E+00  0.00000000E+00
  0.00000000E+00  0.00000000E+00  0.00000000E+00
  0.00000000E+00  0.00000000E+00  0.00000000E+00
  0.00000000E+00  0.00000000E+00  0.00000000E+00
  0.00000000E+00  0.00000000E+00  0.00000000E+00
  0.00000000E+00  0.00000000E+00  0.00000000E+00
  0.00000000E+00  0.00000000E+00  0.00000000E+00
  0.00000000E+00  0.00000000E+00  0.00000000E+00
  0.00000000E+00  0.00000000E+00  0.00000000E+00
  0.00000000E+00  0.00000000E+00  0.00000000E+00
  0.00000000E+00  0.00000000E+00  0.00000000E+00
  0.00000000E+00  0.00000000E+00  0.00000000E+00
  0.00000000E+00  0.00000000E+00  0.00000000E+00
  0.00000000E+00  0.00000000E+00  0.00000000E+00
  0.00000000E+00  0.00000000E+00  0.00000000E+00
  0.00000000E+00  0.00000000E+00  0.00000000E+00
  0.00000000E+00  0.00000000E+00  0.00000000E+00
  0.00000000E+00  0.00000000E+00  0.00000000E+00
  0.00000000E+00  0.00000000E+00  0.00000000E+00
  0.00000000E+00  0.00000000E+00  0.00000000E+00
  0.00000000E+00  0.00000000E+00  0.00000000E+00
  0.00000000E+00  0.00000000E+00  0.00000000E+00
  0.00000000E+00  0.00000000E+00  0.00000000E+00
  0.00000000E+00  0.00000000E+00  0.00000000E+00
  0.00000000E+00  0.00000000E+00  0.00000000E+00
  0.00000000E+00  0.00000000E+00  0.00000000E+00
  0.00000000E+00  0.00000000E+00  0.00000000E+00
  0.00000000E+00  0.00000000E+00  0.00000000E+00
  0.00000000E+00  0.00000000E+00  0.00000000E+00
  0.00000000E+00  0.00000000E+00  0.00000000E+00
  0.00000000E+00  0.00000000E+00  0.00000000E+00
  0.00000000E+00  0.00000000E+00  0.00000000E+00
  0.00000000E+00  0.00000000E+00  0.00000000E+00
  0.00000000E+00  0.00000000E+00  0.00000000E+00
  0.00000000E+00  0.00000000E+00  0.00000000E+00
  0.00000000E+00  0.00000000E+00  0.00000000E+00
  0.00000000E+00  0.00000000E+00  0.00000000E+00
  0.00000000E+00  0.00000000E+00  0.00000000E+00
  0.00000000E+00  0.00000000E+00  0.00000000E+00
  0.00000000E+00  0.00000000E+00  0.00000000E+00
  0.00000000E+00  0.00000000E+00  0.00000000E+00
  0.00000000E+00  0.00000000E+00  0.00000000E+00
  0.00000000E+00  0.00000000E+00  0.00000000E+00
  0.00000000E+00  0.00000000E+00  0.00000000E+00
  0.00000000E+00  0.00000000E+00  0.00000000E+00
  0.00000000E+00  0.00000000E+00  0.00000000E+00
  0.00000000E+00  0.00000000E+00  0.00000000E+00
  0.00000000E+00  0.00000000E+00  0.00000000E+00
  0.00000000E+00  0.00000000E+00  0.00000000E+00
  0.00000000E+00  0.00000000E+00  0.00000000E+00
  0.00000000E+00  0.00000000E+00  0.00000000E+00
  0.00000000E+00  0.00000000E+00  0.00000000E+00
  0.00000000E+00  0.00000000E+00  0.00000000E+00
  0.00000000E+00  0.00000000E+00  0.00000000E+00
  0.00000000E+00  0.00000000E+00  0.00000000E+00
  0.00000000E+00  0.00000000E+00  0.00000000E+00
  0.00000000E+00  0.00000000E+00  0.00000000E+00
  0.00000000E+00  0.00000000E+00  0.00000000E+00
  0.00000000E+00  0.00000000E+00  0.00000000E+00
  0.00000000E+00  0.00000000E+00  0.00000000E+00
  0.00000000E+00  0.00000000E+00  0.00000000E+00
  0.00000000E+00  0.00000000E+00  0.00000000E+00
  0.00000000E+00  0.00000000E+00  0.00000000E+00
  0.00000000E+00  0.00000000E+00  0.00000000E+00
  0.00000000E+00  0.00000000E+00  0.00000000E+00
  0.00000000E+00  0.00000000E+00  0.00000000E+00
  0.00000000E+00  0.00000000E+00  0.00000000E+00
  0.00000000E+00  0.00000000E+00  0.00000000E+00
  0.00000000E+00  0.00000000E+00  0.00000000E+00
  0.00000000E+00  0.00000000E+00  0.00000000E+00
  0.00000000E+00  0.00000000E+00  0.00000000E+00
  0.00000000E+00  0.00000000E+00  0.00000000E+00
  0.00000000E+00  0.00000000E+00  0.00000000E+00
  0.00000000E+00  0.00000000E+00  0.00000000E+00
  0.00000000E+00  0.00000000E+00  0.00000000E+00
  0.00000000E+00  0.00000000E+00  0.00000000E+00
  0.00000000E+00  0.00000000E+00  0.00000000E+00
  0.00000000E+00  0.00000000E+00  0.00000000E+00
  0.00000000E+00  0.00000000E+00  0.00000000E+00
  0.00000000E+00  0.00000000E+00  0.00000000E+00
  0.00000000E+00  0.00000000E+00  0.00000000E+00
  0.00000000E+00  0.00000000E+00  0.00000000E+00
  0.00000000E+00  0.00000000E+00  0.00000000E+00
  0.00000000E+00  0.00000000E+00  0.00000000E+00
  0.00000000E+00  0.00000000E+00  0.00000000E+00
  0.00000000E+00  0.00000000E+00  0.00000000E+00
  0.00000000E+00  0.00000000E+00  0.00000000E+00
  0.00000000E+00  0.00000000E+00  0.00000000E+00
  0.00000000E+00  0.00000000E+00  0.00000000E+00
  0.00000000E+00  0.00000000E+00  0.00000000E+00
  0.00000000E+00  0.00000000E+00  0.00000000E+00
  0.00000000E+00  0.00000000E+00  0.00000000E+00
  0.00000000E+00  0.00000000E+00  0.00000000E+00
  0.00000000E+00  0.00000000E+00  0.00000000E+00
  0.00000000E+00  0.00000000E+00  0.00000000E+00
  0.00000000E+00  0.00000000E+00  0.00000000E+00
  0.00000000E+00  0.00000000E+00  0.00000000E+00
  0.00000000E+00  0.00000000E+00  0.00000000E+00
  0.00000000E+00  0.00000000E+00  0.00000000E+00
  0.00000000E+00  0.00000000E+00  0.00000000E+00
  0.00000000E+00  0.00000000E+00  0.00000000E+00
  0.00000000E+00  0.00000000E+00  0.00000000E+00
  0.00000000E+00  0.00000000E+00  0.00000000E+00
  0.00000000E+00  0.00000000E+00  0.00000000E+00
  0.00000000E+00  0.00000000E+00  0.00000000E+00
  0.00000000E+00  0.00000000E+00  0.00000000E+00
  0.00000000E+00  0.00000000E+00  0.00000000E+00
  0.00000000E+00  0.00000000E+00  0.00000000E+00
  0.00000000E+00  0.00000000E+00  0.00000000E+00
  0.00000000E+00  0.00000000E+00  0.00000000E+00
  0.00000000E+00  0.00000000E+00  0.00000000E+00
  0.00000000E+00  0.00000000E+00  0.00000000E+00
  0.00000000E+00  0.00000000E+00  0.00000000E+00
  0.00000000E+00  0.00000000E+00  0.00000000E+00
  0.00000000E+00  0.00000000E+00  0.00000000E+00
  0.00000000E+00  0.00000000E+00  0.00000000E+00
  0.00000000E+00  0.00000000E+00  0.00000000E+00
  0.00000000E+00  0.00000000E+00  0.00000000E+00
  0.00000000E+00  0.00000000E+00  0.00000000E+00
  0.00000000E+00  0.00000000E+00  0.00000000E+00
