ALGO = Fast
EDIFF = 0.0002
ENCUT = 520
IBRION = 2
ICHARG = 1
ISIF = 3
ISMEAR = 0
ISPIN = 2
LDAU = True
LDAUJ = 0 0
LDAUL = 2 0
LDAUTYPE = 2
LDAUU = 4.0 0
LMAXMIX = 4
LORBIT = 11
LREAL = Auto
LWAVE = False
MAGMOM = 5 -5 2*0.6
NELM = 100
NELMIN = 6
NSW = 99
PREC = Accurate
SIGMA = 0.05
