ALGO = Fast
EDIFF = 0.0001
ENCUT = 520
IBRION = 1
ICHARG = 1
ISIF = 3
ISMEAR = -5
ISPIN = 2
LDAU = False
LORBIT = 11
LREAL = Auto
LWAVE = False
MAGMOM = 44*0.6
NELM = 100
NPAR = 2
NSW = 99
PREC = Accurate
SIGMA = 0.2
