pymatgen generated KPOINTS with grid density = 1000 / atom
0
Monkhorst
6 2 2

