$molecule
 0 1
 O      1.1204652502     -0.0017583357     -1.3014524546
 C      1.5592115423      1.0704722159     -0.5937883808
 C      1.5587245636     -1.0736136241     -0.5929398658
 C      2.6989082615      0.6860331567      0.1480633922
 C      2.6985502091     -0.6891597600      0.1486988629
 H      1.2951552258      2.0377806065     -0.9985276826
 H      1.2945899548     -2.0411078688     -0.9971899942
 H      3.3387726772      1.3537600054      0.7071899395
 H      3.3378694529     -1.3567150095      0.7086700579
 C     -1.1048784362      1.1593830090      0.1831147981
 N     -1.7315011828     -0.0000851199     -0.2677236122
 C      0.0942697218      0.6983786562      0.9517203386
 O     -1.4743434230      2.2897253988     -0.0397864526
 C     -1.1057756052     -1.1600560242      0.1831856302
 C      0.0937471275     -0.7000278451      0.9517732563
 O     -1.4763049749     -2.2900822907     -0.0395314849
 H     -2.5212527985      0.0001920997     -0.8957275312
 H      0.4885670974      1.3336526649      1.7325952199
 H      0.4867153367     -1.3354619353      1.7332059633
$end

$rem
   job_type = freq
   basis = 6-31g*
   max_scf_cycles = 200
   gen_scfman = true
   xc_grid = 3
   scf_algorithm = diis_gdm
   resp_charges = true
   symmetry = false
   sym_ignore = true
   method = wb97xd
   geom_opt_max_cycles = 200
$end
