Na Fe Ni O
1.0
 -11.2644000000000002   0.0000000000000000   0.0000000000000000
   0.0000000000000000 -14.6328840000000007   0.0000000000000000
  -4.2241499999999998   2.4388139999999998  14.0535990000000002
Na Fe Ni O
71  36  36  144  
Direct
  0.5000000000000000  0.0000000000000000  0.0000000000000000  
  0.0000000000000000  0.0000000000000000  0.0000000000000000  
  1.0000000000000000  0.0000000000000000  0.3333330000000000  
  1.0000000000000000  0.0000000000000000  0.6666670000000000  
  0.0000000000000000  0.3333330000000000  0.0000000000000000  
  1.0000000000000000  0.3333330000000000  0.3333330000000000  
  1.0000000000000000  0.3333330000000000  0.6666670000000000  
  0.0000000000000000  0.6666670000000000  0.0000000000000000  
  1.0000000000000000  0.6666670000000000  0.3333330000000000  
  1.0000000000000000  0.6666670000000000  0.6666670000000000  
  0.2500000000000000  0.0000000000000000  0.3333330000000000  
  0.2500000000000000  0.0000000000000000  0.6666670000000000  
  0.2500000000000000  0.3333330000000000  0.0000000000000000  
  0.2500000000000000  0.3333330000000000  0.3333330000000000  
  0.2500000000000000  0.3333330000000000  0.6666670000000000  
  0.2500000000000000  0.6666670000000000  0.0000000000000000  
  0.2500000000000000  0.6666670000000000  0.3333330000000000  
  0.2500000000000000  0.6666670000000000  0.6666670000000000  
  0.5000000000000000  0.0000000000000000  0.3333330000000000  
  0.5000000000000000  0.0000000000000000  0.6666670000000000  
  0.5000000000000000  0.3333330000000000  0.0000000000000000  
  0.5000000000000000  0.3333330000000000  0.3333330000000000  
  0.5000000000000000  0.3333330000000000  0.6666670000000000  
  0.5000000000000000  0.6666670000000000  0.0000000000000000  
  0.5000000000000000  0.6666670000000000  0.3333330000000000  
  0.5000000000000000  0.6666670000000000  0.6666670000000000  
  0.7500000000000000  0.0000000000000000  0.0000000000000000  
  0.7500000000000000  0.0000000000000000  0.3333330000000000  
  0.7500000000000000  0.0000000000000000  0.6666670000000000  
  0.7500000000000000  0.3333330000000000  0.0000000000000000  
  0.7500000000000000  0.3333330000000000  0.3333330000000000  
  0.7500000000000000  0.3333330000000000  0.6666670000000000  
  0.7500000000000000  0.6666670000000000  0.0000000000000000  
  0.7500000000000000  0.6666670000000000  0.3333330000000000  
  0.7500000000000000  0.6666670000000000  0.6666670000000000  
  0.1250000000000000  0.1666670000000000  0.0000000000000000  
  0.1250000000000000  0.1666670000000000  0.3333330000000000  
  0.1250000000000000  0.1666670000000000  0.6666670000000000  
  0.1250000000000000  0.5000000000000000  0.0000000000000000  
  0.1250000000000000  0.5000000000000000  0.3333330000000000  
  0.1250000000000000  0.5000000000000000  0.6666670000000000  
  0.1250000000000000  0.8333330000000000  0.0000000000000000  
  0.1250000000000000  0.8333330000000000  0.3333330000000000  
  0.1250000000000000  0.8333330000000000  0.6666670000000000  
  0.3750000000000000  0.1666670000000000  0.0000000000000000  
  0.3750000000000000  0.1666670000000000  0.3333330000000000  
  0.3750000000000000  0.1666670000000000  0.6666670000000000  
  0.3750000000000000  0.5000000000000000  0.0000000000000000  
  0.3750000000000000  0.5000000000000000  0.3333330000000000  
  0.3750000000000000  0.5000000000000000  0.6666670000000000  
  0.3750000000000000  0.8333330000000000  0.0000000000000000  
  0.3750000000000000  0.8333330000000000  0.3333330000000000  
  0.3750000000000000  0.8333330000000000  0.6666670000000000  
  0.6250000000000000  0.1666670000000000  0.0000000000000000  
  0.6250000000000000  0.1666670000000000  0.3333330000000000  
  0.6250000000000000  0.1666670000000000  0.6666670000000000  
  0.6250000000000000  0.5000000000000000  0.0000000000000000  
  0.6250000000000000  0.5000000000000000  0.3333330000000000  
  0.6250000000000000  0.5000000000000000  0.6666670000000000  
  0.6250000000000000  0.8333330000000000  0.0000000000000000  
  0.6250000000000000  0.8333330000000000  0.3333330000000000  
  0.6250000000000000  0.8333330000000000  0.6666670000000000  
  0.8750000000000000  0.1666670000000000  0.0000000000000000  
  0.8750000000000000  0.1666670000000000  0.3333330000000000  
  0.8750000000000000  0.1666670000000000  0.6666670000000000  
  0.8750000000000000  0.5000000000000000  0.0000000000000000  
  0.8750000000000000  0.5000000000000000  0.3333330000000000  
  0.8750000000000000  0.5000000000000000  0.6666670000000000  
  0.8750000000000000  0.8333330000000000  0.0000000000000000  
  0.8750000000000000  0.8333330000000000  0.3333330000000000  
  0.8750000000000000  0.8333330000000000  0.6666670000000000  
  0.0625000000000000  0.0833330000000000  0.1666670000000000  
  0.0625000000000000  0.0833330000000000  0.5000000000000000  
  0.0625000000000000  0.0833330000000000  0.8333330000000000  
  0.0625000000000000  0.4166670000000000  0.1666670000000000  
  0.0625000000000000  0.4166670000000000  0.5000000000000000  
  0.0625000000000000  0.4166670000000000  0.8333330000000000  
  0.0625000000000000  0.7500000000000000  0.1666670000000000  
  0.0625000000000000  0.7500000000000000  0.5000000000000000  
  0.0625000000000000  0.7500000000000000  0.8333330000000000  
  0.3125000000000000  0.0833330000000000  0.1666670000000000  
  0.3125000000000000  0.0833330000000000  0.5000000000000000  
  0.3125000000000000  0.0833330000000000  0.8333330000000000  
  0.3125000000000000  0.4166670000000000  0.1666670000000000  
  0.3125000000000000  0.4166670000000000  0.5000000000000000  
  0.3125000000000000  0.4166670000000000  0.8333330000000000  
  0.3125000000000000  0.7500000000000000  0.1666670000000000  
  0.3125000000000000  0.7500000000000000  0.5000000000000000  
  0.3125000000000000  0.7500000000000000  0.8333330000000000  
  0.5625000000000000  0.0833330000000000  0.1666670000000000  
  0.5625000000000000  0.0833330000000000  0.5000000000000000  
  0.5625000000000000  0.0833330000000000  0.8333330000000000  
  0.5625000000000000  0.4166670000000000  0.1666670000000000  
  0.5625000000000000  0.4166670000000000  0.5000000000000000  
  0.5625000000000000  0.4166670000000000  0.8333330000000000  
  0.5625000000000000  0.7500000000000000  0.1666670000000000  
  0.5625000000000000  0.7500000000000000  0.5000000000000000  
  0.5625000000000000  0.7500000000000000  0.8333330000000000  
  0.8125000000000000  0.0833330000000000  0.1666670000000000  
  0.8125000000000000  0.0833330000000000  0.5000000000000000  
  0.8125000000000000  0.0833330000000000  0.8333330000000000  
  0.8125000000000000  0.4166670000000000  0.1666670000000000  
  0.8125000000000000  0.4166670000000000  0.5000000000000000  
  0.8125000000000000  0.4166670000000000  0.8333330000000000  
  0.8125000000000000  0.7500000000000000  0.1666670000000000  
  0.8125000000000000  0.7500000000000000  0.5000000000000000  
  0.8125000000000000  0.7500000000000000  0.8333330000000000  
  0.1875000000000000  0.2500000000000000  0.1666670000000000  
  0.1875000000000000  0.2500000000000000  0.5000000000000000  
  0.1875000000000000  0.2500000000000000  0.8333330000000000  
  0.1875000000000000  0.5833330000000000  0.1666670000000000  
  0.1875000000000000  0.5833330000000000  0.5000000000000000  
  0.1875000000000000  0.5833330000000000  0.8333330000000000  
  0.1875000000000000  0.9166670000000000  0.1666670000000000  
  0.1875000000000000  0.9166670000000000  0.5000000000000000  
  0.1875000000000000  0.9166670000000000  0.8333330000000000  
  0.4375000000000000  0.2500000000000000  0.1666670000000000  
  0.4375000000000000  0.2500000000000000  0.5000000000000000  
  0.4375000000000000  0.2500000000000000  0.8333330000000000  
  0.4375000000000000  0.5833330000000000  0.1666670000000000  
  0.4375000000000000  0.5833330000000000  0.5000000000000000  
  0.4375000000000000  0.5833330000000000  0.8333330000000000  
  0.4375000000000000  0.9166670000000000  0.1666670000000000  
  0.4375000000000000  0.9166670000000000  0.5000000000000000  
  0.4375000000000000  0.9166670000000000  0.8333330000000000  
  0.6875000000000000  0.2500000000000000  0.1666670000000000  
  0.6875000000000000  0.2500000000000000  0.5000000000000000  
  0.6875000000000000  0.2500000000000000  0.8333330000000000  
  0.6875000000000000  0.5833330000000000  0.1666670000000000  
  0.6875000000000000  0.5833330000000000  0.5000000000000000  
  0.6875000000000000  0.5833330000000000  0.8333330000000000  
  0.6875000000000000  0.9166670000000000  0.1666670000000000  
  0.6875000000000000  0.9166670000000000  0.5000000000000000  
  0.6875000000000000  0.9166670000000000  0.8333330000000000  
  0.9375000000000000  0.2500000000000000  0.1666670000000000  
  0.9375000000000000  0.2500000000000000  0.5000000000000000  
  0.9375000000000000  0.2500000000000000  0.8333330000000000  
  0.9375000000000000  0.5833330000000000  0.1666670000000000  
  0.9375000000000000  0.5833330000000000  0.5000000000000000  
  0.9375000000000000  0.5833330000000000  0.8333330000000000  
  0.9375000000000000  0.9166670000000000  0.1666670000000000  
  0.9375000000000000  0.9166670000000000  0.5000000000000000  
  0.9375000000000000  0.9166670000000000  0.8333330000000000  
  0.2148160000000000  0.1267480000000000  0.0938230000000000  
  0.2148160000000000  0.1267480000000000  0.4271570000000000  
  0.2148160000000000  0.1267480000000000  0.7604900000000000  
  0.2148160000000000  0.4600820000000000  0.0938230000000000  
  0.2148160000000000  0.4600820000000000  0.4271570000000000  
  0.2148160000000000  0.4600820000000000  0.7604900000000000  
  0.2148160000000000  0.7934150000000000  0.0938230000000000  
  0.2148160000000000  0.7934150000000000  0.4271570000000000  
  0.2148160000000000  0.7934150000000000  0.7604900000000000  
  0.4648160000000000  0.1267480000000000  0.0938230000000000  
  0.4648160000000000  0.1267480000000000  0.4271570000000000  
  0.4648160000000000  0.1267480000000000  0.7604900000000000  
  0.4648160000000000  0.4600820000000000  0.0938230000000000  
  0.4648160000000000  0.4600820000000000  0.4271570000000000  
  0.4648160000000000  0.4600820000000000  0.7604900000000000  
  0.4648160000000000  0.7934150000000000  0.0938230000000000  
  0.4648160000000000  0.7934150000000000  0.4271570000000000  
  0.4648160000000000  0.7934150000000000  0.7604900000000000  
  0.7148160000000000  0.1267480000000000  0.0938230000000000  
  0.7148160000000000  0.1267480000000000  0.4271570000000000  
  0.7148160000000000  0.1267480000000000  0.7604900000000000  
  0.7148160000000000  0.4600820000000000  0.0938230000000000  
  0.7148160000000000  0.4600820000000000  0.4271570000000000  
  0.7148160000000000  0.4600820000000000  0.7604900000000000  
  0.7148160000000000  0.7934150000000000  0.0938230000000000  
  0.7148160000000000  0.7934150000000000  0.4271570000000000  
  0.7148160000000000  0.7934150000000000  0.7604900000000000  
  0.9648160000000000  0.1267480000000000  0.0938230000000000  
  0.9648160000000000  0.1267480000000000  0.4271570000000000  
  0.9648160000000000  0.1267480000000000  0.7604900000000000  
  0.9648160000000000  0.4600820000000000  0.0938230000000000  
  0.9648160000000000  0.4600820000000000  0.4271570000000000  
  0.9648160000000000  0.4600820000000000  0.7604900000000000  
  0.9648160000000000  0.7934150000000000  0.0938230000000000  
  0.9648160000000000  0.7934150000000000  0.4271570000000000  
  0.9648160000000000  0.7934150000000000  0.7604900000000000  
  0.0898160000000000  0.2934150000000000  0.0938230000000000  
  0.0898160000000000  0.2934150000000000  0.4271570000000000  
  0.0898160000000000  0.2934150000000000  0.7604900000000000  
  0.0898160000000000  0.6267480000000000  0.0938230000000000  
  0.0898160000000000  0.6267480000000000  0.4271570000000000  
  0.0898160000000000  0.6267480000000000  0.7604900000000000  
  0.0898160000000000  0.9600820000000000  0.0938230000000000  
  0.0898160000000000  0.9600820000000000  0.4271570000000000  
  0.0898160000000000  0.9600820000000000  0.7604900000000000  
  0.3398160000000000  0.2934150000000000  0.0938230000000000  
  0.3398160000000000  0.2934150000000000  0.4271570000000000  
  0.3398160000000000  0.2934150000000000  0.7604900000000000  
  0.3398160000000000  0.6267480000000000  0.0938230000000000  
  0.3398160000000000  0.6267480000000000  0.4271570000000000  
  0.3398160000000000  0.6267480000000000  0.7604900000000000  
  0.3398160000000000  0.9600820000000000  0.0938230000000000  
  0.3398160000000000  0.9600820000000000  0.4271570000000000  
  0.3398160000000000  0.9600820000000000  0.7604900000000000  
  0.5898160000000000  0.2934150000000000  0.0938230000000000  
  0.5898160000000000  0.2934150000000000  0.4271570000000000  
  0.5898160000000000  0.2934150000000000  0.7604900000000000  
  0.5898160000000000  0.6267480000000000  0.0938230000000000  
  0.5898160000000000  0.6267480000000000  0.4271570000000000  
  0.5898160000000000  0.6267480000000000  0.7604900000000000  
  0.5898160000000000  0.9600820000000000  0.0938230000000000  
  0.5898160000000000  0.9600820000000000  0.4271570000000000  
  0.5898160000000000  0.9600820000000000  0.7604900000000000  
  0.8398160000000000  0.2934150000000000  0.0938230000000000  
  0.8398160000000000  0.2934150000000000  0.4271570000000000  
  0.8398160000000000  0.2934150000000000  0.7604900000000000  
  0.8398160000000000  0.6267480000000000  0.0938230000000000  
  0.8398160000000000  0.6267480000000000  0.4271570000000000  
  0.8398160000000000  0.6267480000000000  0.7604900000000000  
  0.8398160000000000  0.9600820000000000  0.0938230000000000  
  0.8398160000000000  0.9600820000000000  0.4271570000000000  
  0.8398160000000000  0.9600820000000000  0.7604900000000000  
  0.1601840000000000  0.0399180000000000  0.2395100000000000  
  0.1601840000000000  0.0399180000000000  0.5728430000000000  
  0.1601840000000000  0.0399180000000000  0.9061770000000000  
  0.1601840000000000  0.3732520000000000  0.2395100000000000  
  0.1601840000000000  0.3732520000000000  0.5728430000000000  
  0.1601840000000000  0.3732520000000000  0.9061770000000000  
  0.1601840000000000  0.7065850000000000  0.2395100000000000  
  0.1601840000000000  0.7065850000000000  0.5728430000000000  
  0.1601840000000000  0.7065850000000000  0.9061770000000000  
  0.4101840000000000  0.0399180000000000  0.2395100000000000  
  0.4101840000000000  0.0399180000000000  0.5728430000000000  
  0.4101840000000000  0.0399180000000000  0.9061770000000000  
  0.4101840000000000  0.3732520000000000  0.2395100000000000  
  0.4101840000000000  0.3732520000000000  0.5728430000000000  
  0.4101840000000000  0.3732520000000000  0.9061770000000000  
  0.4101840000000000  0.7065850000000000  0.2395100000000000  
  0.4101840000000000  0.7065850000000000  0.5728430000000000  
  0.4101840000000000  0.7065850000000000  0.9061770000000000  
  0.6601840000000000  0.0399180000000000  0.2395100000000000  
  0.6601840000000000  0.0399180000000000  0.5728430000000000  
  0.6601840000000000  0.0399180000000000  0.9061770000000000  
  0.6601840000000000  0.3732520000000000  0.2395100000000000  
  0.6601840000000000  0.3732520000000000  0.5728430000000000  
  0.6601840000000000  0.3732520000000000  0.9061770000000000  
  0.6601840000000000  0.7065850000000000  0.2395100000000000  
  0.6601840000000000  0.7065850000000000  0.5728430000000000  
  0.6601840000000000  0.7065850000000000  0.9061770000000000  
  0.9101840000000000  0.0399180000000000  0.2395100000000000  
  0.9101840000000000  0.0399180000000000  0.5728430000000000  
  0.9101840000000000  0.0399180000000000  0.9061770000000000  
  0.9101840000000000  0.3732520000000000  0.2395100000000000  
  0.9101840000000000  0.3732520000000000  0.5728430000000000  
  0.9101840000000000  0.3732520000000000  0.9061770000000000  
  0.9101840000000000  0.7065850000000000  0.2395100000000000  
  0.9101840000000000  0.7065850000000000  0.5728430000000000  
  0.9101840000000000  0.7065850000000000  0.9061770000000000  
  0.0351840000000000  0.2065850000000000  0.2395100000000000  
  0.0351840000000000  0.2065850000000000  0.5728430000000000  
  0.0351840000000000  0.2065850000000000  0.9061770000000000  
  0.0351840000000000  0.5399180000000000  0.2395100000000000  
  0.0351840000000000  0.5399180000000000  0.5728430000000000  
  0.0351840000000000  0.5399180000000000  0.9061770000000000  
  0.0351840000000000  0.8732520000000000  0.2395100000000000  
  0.0351840000000000  0.8732520000000000  0.5728430000000000  
  0.0351840000000000  0.8732520000000000  0.9061770000000000  
  0.2851840000000000  0.2065850000000000  0.2395100000000000  
  0.2851840000000000  0.2065850000000000  0.5728430000000000  
  0.2851840000000000  0.2065850000000000  0.9061770000000000  
  0.2851840000000000  0.5399180000000000  0.2395100000000000  
  0.2851840000000000  0.5399180000000000  0.5728430000000000  
  0.2851840000000000  0.5399180000000000  0.9061770000000000  
  0.2851840000000000  0.8732520000000000  0.2395100000000000  
  0.2851840000000000  0.8732520000000000  0.5728430000000000  
  0.2851840000000000  0.8732520000000000  0.9061770000000000  
  0.5351840000000000  0.2065850000000000  0.2395100000000000  
  0.5351840000000000  0.2065850000000000  0.5728430000000000  
  0.5351840000000000  0.2065850000000000  0.9061770000000000  
  0.5351840000000000  0.5399180000000000  0.2395100000000000  
  0.5351840000000000  0.5399180000000000  0.5728430000000000  
  0.5351840000000000  0.5399180000000000  0.9061770000000000  
  0.5351840000000000  0.8732520000000000  0.2395100000000000  
  0.5351840000000000  0.8732520000000000  0.5728430000000000  
  0.5351840000000000  0.8732520000000000  0.9061770000000000  
  0.7851840000000000  0.2065850000000000  0.2395100000000000  
  0.7851840000000000  0.2065850000000000  0.5728430000000000  
  0.7851840000000000  0.2065850000000000  0.9061770000000000  
  0.7851840000000000  0.5399180000000000  0.2395100000000000  
  0.7851840000000000  0.5399180000000000  0.5728430000000000  
  0.7851840000000000  0.5399180000000000  0.9061770000000000  
  0.7851840000000000  0.8732520000000000  0.2395100000000000  
  0.7851840000000000  0.8732520000000000  0.5728430000000000  
  0.7851840000000000  0.8732520000000000  0.9061770000000000  
