Automatic kpoint scheme
0
Monkhorst
2 2 2
