$molecule
 0 1
 S     -0.4432159649   -0.8532426649   -0.8644599732
 O     -1.0145514812    0.7372347908   -0.5781540799
 O     -1.2700661723   -1.8503033152   -0.2399328053
 C      0.9600729210    1.2593987280    0.6789771259
 F      1.9920330822    0.5458848631    1.1271969959
 N      0.0840370831    0.3971691786    0.2119179251
$end

$rem
   job_type = opt
   basis = 6-311++g*
   max_scf_cycles = 200
   gen_scfman = true
   scf_algorithm = gdm
   method = wb97xd
   geom_opt_max_cycles = 200
$end
