ALGO = Normal
AMIX_MAG = 0.8
BMIX = 0.001
BMIX_MAG = 0.001
EDIFF = 0.0004
ENCUT = 520
IBRION = 1
ICHARG = 1
ISIF = 3
ISMEAR = 0
ISPIN = 2
ISTART = 1
LDAU = True
LDAUJ = 0 0 0 0
LDAUL = 0 2 2 0
LDAUTYPE = 2
LDAUU = 0 4.0 6 0
LMAXMIX = 4
LORBIT = 11
LREAL = Auto
LWAVE = False
MAGMOM = 2*0.6 1*5.0 5*0.6
NELM = 100
NELMDL = -6
NELMIN = 6
NPAR = 1
NSW = 99
PREC = Accurate
SIGMA = 0.05
