Automatic kpoint scheme
0
Monkhorst
5 5 1
