$molecule
 -1 3
 S      1.1818189572      0.0176443993     -0.2229264878
 C      0.8202051049      1.3794765794      1.0078204697
 O      1.0280700588     -1.2125689799      0.5335477805
 O      2.4963498827      0.3599595113     -0.7318384144
 F      0.8639258928      2.5657414574      0.4111060833
 F     -0.3799582115      1.2177756073      1.5522175822
 F      1.7354899995      1.3526562438      1.9734093063
$end

$rem
   job_type = opt
   basis = 6-311++g*
   max_scf_cycles = 200
   gen_scfman = true
   scf_algorithm = gdm
   method = wb97xd
   geom_opt_max_cycles = 200
   solvent_method = pcm
   xc_grid = 3
$end

$pcm
   heavypoints 194
   hpoints 194
   radii uff
   theory cpcm
   vdwscale 1.1
$end

$solvent
   dielectric 30.0
$end
