$molecule
 0  1
 O           1.37885090        0.02011386        0.11305256
 H           1.64115400        0.81270208       -0.39434717
 H           1.77657104       -0.72611493       -0.34979400
 O          -1.49789014       -0.02536580       -0.13161599
 H          -0.55136127        0.01085672        0.15673277
 H          -1.93929672        0.02444522        0.78431368
$end


$rem
          jobtype = aimd
         exchange = b3lyp
            basis = 6-31g*
  aimd_init_veloc = thermal
      aimd_method = bomd
       aimd_steps = 3
        aimd_temp = 298
   max_scf_cycles = 200
    scf_algorithm = diis
        scf_guess = sad
        time_step = 20
$end


$velocity
 -1.21943E-04    1.56972E-04    7.68563E-05
 -1.48022E-03    1.15459E-03    4.93151E-04
  6.82688E-04    4.28981E-04   -1.23966E-03
  1.63551E-04   -2.04447E-04   -5.02359E-05
  6.77461E-05   -1.58708E-05    1.19605E-03
  6.94391E-05   -8.14238E-04   -8.72025E-04
$end

