$molecule
 0 1
 S      1.0674604815     -0.1364130038      0.4339815443
 O      0.4306804929      1.3686160899     -0.1041330406
 O      1.8734903353     -0.8039906835     -0.5522789224
 C     -1.8112851495      0.4368681401     -0.1752811069
 F     -2.3230303009     -0.7774034802      0.0347241314
 N     -0.5035390817      0.3177490178     -0.1329991666
$end

$rem
   job_type = freq
   basis = 6-311++g*
   max_scf_cycles = 200
   gen_scfman = true
   scf_algorithm = gdm
   method = wb97xd
   geom_opt_max_cycles = 200
$end
