Cs6 U6 As12 O55
1.0
   6.7346923911508014    0.0000000000000000    0.9285262282647135
   0.7401923066829772    9.5890356602029918    2.1332187291702365
   0.0000000000000000    0.0000000000000000   20.5988000000000007
Cs U As O
6 6 12 55
direct
   0.4957000000000000    0.3319500000000000    0.9441000000000001 Cs+
   0.9702000000000000    0.6994000000000000    0.6221800000000000 Cs+
   0.0867000000000000    0.1105000000000000    0.6551800000000000 Cs+
   0.7371000000000000    0.0299000000000000    0.2812500000000000 Cs+
   0.3684000000000000    0.7777800000000000    0.9883999999999999 Cs+
   0.5954000000000000    0.4774200000000000    0.3348800000000000 Cs+
   0.3278000000000000    0.0356500000000000    0.1334400000000000 U6+
   0.5132600000000000    0.4086600000000000    0.1459100000000000 U6+
   0.5191000000000000    0.7374600000000000    0.4757300000000000 U6+
   0.3550100000000000    0.7029800000000000    0.7830900000000001 U6+
   0.7023400000000000    0.1031800000000000    0.4972200000000000 U6+
   0.5386900000000000    0.0726599999999999    0.8021300000000000 U6+
   0.7045000000000000    0.4248000000000001    0.7374800000000000 As5+
   0.8314000000000000    0.7236000000000000    0.8419200000000000 As5+
   0.1380000000000000    0.3702000000000000    0.7862400000000000 As5+
   0.0282000000000000    0.9725000000000000    0.8569700000000000 As5+
   0.1601000000000000    0.6777000000000000    0.1988300000000000 As5+
   0.2238000000000000    0.0841000000000001    0.4373500000000000 As5+
   0.8397000000000000    0.1332000000000000    0.0763900000000000 As5+
   0.0284000000000000    0.8342000000000001    0.4208499999999999 As5+
   0.3544000000000000    0.3844000000000000    0.5409900000000001 As5+
   0.9174000000000000    0.4379999999999999    0.4948500000000000 As5+
   0.0351000000000000    0.3849000000000000    0.0865900000000000 As5+
   0.7351000000000000    0.7370000000000000    0.1501600000000000 As5+
   0.0140000000000000    0.7305000000000000    0.7777000000000001 O2-
   0.6620000000000000    0.5819000000000001    0.7579000000000000 O2-
   0.8820000000000000    0.0549999999999999    0.7982000000000000 O2-
   0.1780000000000000    0.7551000000000000    0.4764000000000000 O2-
   0.2537000000000000    0.9265000000000000    0.8187000000000000 O2-
   0.5770000000000000    0.0854999999999999    0.7158000000000000 O2-
   0.6180000000000000    0.2970999999999999    0.7952000000000000 O2-
   0.2400000000000000    0.2114000000000000    0.7865000000000000 O2-
   0.5500000000000000    0.4950000000000000    0.0609000000000000 O2-
   0.5120000000000000    0.0544000000000000    0.8902000000000000 O2-
   0.6271000000000000    0.8174000000000000    0.8173000000000000 O2-
   0.3250000000000000    0.6163999999999999    0.8687000000000000 O2-
   0.9150000000000000    0.8182000000000000    0.8944000000000000 O2-
   0.2860000000000000    0.4981000000000000    0.7553000000000000 O2-
   0.4790000000000000    0.7225000000000000    0.5642000000000000 O2-
   0.0300000000000000    0.3731000000000000    0.8633999999999999 O2-
   0.7730000000000000    0.3075000000000001    0.5256000000000001 O2-
   0.0569999999999999    0.0424000000000000    0.9189000000000001 O2-
   0.2050000000000000    0.5308000000000000    0.1727000000000000 O2-
   0.0490000000000000    0.0733999999999999    0.5014000000000001 O2-
   0.9920000000000000    0.7711000000000000    0.3575000000000000 O2-
   0.3730000000000000    0.7956000000000000    0.6982999999999999 O2-
   0.9680000000000000    0.3910000000000000    0.7289000000000000 O2-
   0.4000000000000000    0.2285000000000000    0.5217000000000001 O2-
   0.4820000000000000    0.3148000000000000    0.2296000000000000 O2-
   0.6820000000000001    0.4258000000000000    0.6598999999999999 O2-
   0.8120000000000001    0.5942000000000001    0.4958000000000000 O2-
   0.5430000000000000    0.7559000000000000    0.3884000000000000 O2-
   0.7920000000000000    0.5724000000000000    0.8891000000000000 O2-
   0.7400000000000000    0.1913000000000000    0.4115000000000000 O2-
   0.2990000000000000    0.0278000000000000    0.2205000000000000 O2-
   0.8066000000000000    0.8840000000000000    0.4604000000000000 O2-
   0.4430000000000000    0.5125000000000000    0.4799000000000000 O2-
   0.0309999999999999    0.4387000000000001    0.4172000000000000 O2-
   0.2260000000000000    0.6642000000000000    0.2741000000000000 O2-
   0.4331000000000000    0.9927000000000000    0.4636000000000000 O2-
   0.0960000000000001    0.4125000000000001    0.5504000000000000 O2-
   0.8519000000000000    0.3812000000000000    0.1484000000000000 O2-
   0.3780000000000000    0.3854000000000000    0.6205000000000001 O2-
   0.1380000000000000    0.9863000000000000    0.3835000000000000 O2-
   0.9855000000000000    0.0607000000000000    0.1336000000000000 O2-
   0.6820000000000001    0.0089999999999999    0.5795000000000000 O2-
   0.8610000000000000    0.7372000000000000    0.0755000000000000 O2-
   0.6225000000000001    0.8922000000000000    0.1526000000000000 O2-
   0.0734000000000000    0.5404000000000000    0.0379000000000000 O2-
   0.8049999999999999    0.0598000000000000    0.0144000000000000 O2-
   0.2590000000000000    0.2399000000000000    0.3884000000000000 O2-
   0.9020000000000000    0.7111000000000000    0.2107000000000000 O2-
   0.2452000000000000    0.2942000000000000    0.1141000000000000 O2-
   0.6118000000000000    0.1867000000000000    0.1127000000000000 O2-
   0.5870000000000000    0.6081000000000000    0.1783000000000000 O2-
   0.2410000000000000    0.8121000000000000    0.1442000000000000 O2-
   0.3547000000000000    0.0504000000000000    0.0454000000000000 O2-
   0.9534000000000000    0.2907000000000000    0.0346000000000000 O2-
   0.9690000000000000    0.2971000000000000    0.2809000000000000 O2-
