ADDGRID = False
ALGO = Fast
AMIN = 0.1
EDIFF = 1e-06
ENAUG = 1360
ENCUT = 680
ISMEAR = -5
ISPIN = 2
KPAR = 4
KSPACING = 0.22
LAECHG = False
LASPH = False
LCHARG = False
LELF = False
LMAXMIX = 6
LORBIT = 11
LREAL = Auto
LVTOT = False
LWAVE = False
MAGMOM = 99*0.6
NCORE = 1
NELM = 100
NSIM = 8
NSW = 0
PREC = Accurate
SIGMA = 0.05
