ALGO = All
EDIFF = 1e-05
EDIFFG = -0.05
ENCUT = 400
GGA = Pe
IBRION = 2
ISIF = 2
ISMEAR = 0
ISYM = 0
IVDW = 12
LASPH = False
LCHARG = False
LORBIT = 11
LREAL = False
NELM = 150
NELMIN = 3
NSW = 300
PREC = Accurate
SIGMA = 0.01
SYMPREC = 1e-08
