ADDGRID = True
EDIFF = 1e-08
EDIFFG = -0.005
ENCUT = 750
GGA = Pe
IBRION = 2
ISIF = 3
ISMEAR = -1
ISPIN = 0
LCHARG = False
LREAL = False
LWAVE = False
NBANDS = 7
NCORE = 4
NELM = 120
NSW = 500
PREC = Accurate
SIGMA = 0.1
