ALGO = Normal
EDIFF = 1e-05
EDIFFG = -0.05
ENCUT = 520
IBRION = 8
ICHARG = 0
ISIF = 3
ISMEAR = -5
ISPIN = 2
ISTART = 1
KPOINT_BSE = -1
LAECHG = True
LCHARG = True
LEPSILON = True
LORBIT = 11
LREAL = Auto
LVHAR = True
LWAVE = False
MAGMOM = 12*-0.0 1*6.924 1*-6.926 1*6.928 1*6.92 1*6.928 1*-6.926 1*6.924 1*6.92 1*-6.918 1*-6.925 1*-6.919 1*6.926 1*0.002 1*-0.007 1*0.006 1*-0.005 1*-0.003 1*-0.001 1*0.002 1*-0.011 1*0.001 1*-0.002 1*0.006 1*0.004 1*-0.005 1*0.001 1*-0.009 1*-0.002 1*-0.004 1*0.002 1*-0.004 1*-0.001 1*-0.004 1*0.007 1*0.004 1*-0.004
NELM = 100
POTIM = 0.125
PREC = Accurate
SIGMA = 0.05
