ALGO = Fast
EDIFF = 5e-05
EDIFFG = -0.02
ENCUT = 520
IBRION = 3
ICHAIN = 0
ICHARG = 1
IMAGES = 3
IOPT = 1
ISIF = 2
ISMEAR = 0
ISPIN = 2
ISYM = 0
LCHARG = False
LCLIMB = True
LORBIT = 0
LREAL = Auto
LWAVE = False
MAGMOM = 71*0.6 36*5 36*2 144*0.6
NELM = 100
NELMIN = 6
NPAR = 2
NSW = 200
POTIM = 0.0
PREC = Accurate
SIGMA = 0.05
