Na1
1.0
-2.816100 0.000000 0.000000
-0.000000 -4.877628 0.000000
-1.408050 0.812938 4.684533
Na
1
direct
0.000000 0.000000 0.000000 Na