$molecule
 0 2
 C      0.3191300000     -1.3613000000      0.0128700000
 O      1.2852600000     -1.4554200000     -0.6606500000
 H      0.2921000000     -1.3964700000      1.1311400000
 O     -1.0993600000      1.1729700000      0.1536300000
 Li     -0.0891800000      2.4722900000      0.5674400000
 Li     -1.6138800000     -0.1007900000     -0.8422700000
$end

$rem
   job_type = freq
   basis = def2-svpd
   max_scf_cycles = 200
   gen_scfman = true
   xc_grid = 3
   scf_algorithm = diis
   resp_charges = true
   symmetry = false
   sym_ignore = true
   method = wb97xv
   solvent_method = smd
   ideriv = 1
   thresh = 14
$end

$smx
   solvent other
$end
