$comment
 27_ doublet anion B3lYP/6-31+G* vibrational frequency
$end


$molecule
 -1  2
 C           4.86478400        0.12194900        0.36544900
 C           3.49774200        0.76757000        0.62555200
 C          -4.23554900       -0.02850800        0.37506800
 C          -3.71534000        1.08056100       -0.30776900
 C          -3.36788300       -1.03401600        0.80547900
 C          -2.34522700        1.13981000       -0.59890700
 C          -1.99501700       -0.95516700        0.54206500
 C           2.16881400       -0.72761300       -1.02299400
 C           0.66678400       -0.99224800       -1.19319500
 C           0.92731400        0.47399200        0.73348800
 C           2.30645000       -0.18045600        0.42051900
 C          -1.46517300        0.12647000       -0.19660100
 C           0.01281100        0.23028200       -0.50691800
 H           5.68611100        0.82579900        0.56580900
 H           4.96385800       -0.21461900       -0.67488800
 H           5.01600100       -0.75536100        1.00837700
 H           3.37253100        1.64455400       -0.02743600
 H           3.47371500        1.15165400        1.65733100
 H          -5.30460500       -0.10022100        0.57762300
 H          -4.37217500        1.88815300       -0.62997200
 H          -3.75750100       -1.89120600        1.35490900
 H          -1.95257900        1.99497300       -1.15128200
 H          -1.33765500       -1.74737600        0.89769700
 H           2.49504200        0.03679800       -1.74532700
 H           2.78398000       -1.61965000       -1.20152400
 H           0.38532400       -1.91819500       -0.67384300
 H           0.35691500       -1.09930900       -2.24212400
 H           0.47993100        0.02083300        1.62732400
 H           1.02195000        1.55018200        0.93883800
 H           2.44286200       -1.03860300        1.09640200
 H           0.14476100        1.08342200       -1.18715800
$end


$rem
     jobtype = freq
    exchange = b3lyp
       basis = 6-31+g*
  cpscf_nseg = 31
  mem_static = 100
   mem_total = 2200
      thresh = 12
     xc_grid = 000128000302
$end

