$molecule
 0  1
 O           1.40857759        0.00757707        0.11810254
 H           1.75860197        0.71276907       -0.43652329
 H           1.69618297       -0.79263878       -0.33589997
 O          -1.52819370        0.00271562       -0.12298702
 H          -0.54617935       -0.01475293        0.00466575
 H          -1.97238325       -0.03019148        0.74756893
$end


$rem
          jobtype = aimd
         exchange = b3lyp
            basis = 6-31g*
  aimd_init_veloc = thermal
      aimd_method = bomd
       aimd_steps = 4
        aimd_temp = 298
   max_scf_cycles = 200
    scf_algorithm = diis
        scf_guess = sad
        time_step = 20
$end

