$comments
 <Geom Opt Fix Strategy>{
    "current_method_id": 1, 
    "methods": [
        "GDIIS", 
        "CartCoords"
    ]
}</Geom Opt Fix Strategy>
$end


$molecule
 0  1
 H           0.00000000        0.00000000       -0.83127700
 F           0.00000000        0.00000000        0.10608800
$end


$rem
              jobtype = opt
             exchange = b3lyp
                basis = 6-31+g*
      geom_opt_coords = 0
  geom_opt_max_cycles = 200
    geom_opt_max_diis = 0
$end

