$comments
 <SCF Fix Strategy>{
    "current_method_id": 3, 
    "methods": [
        "increase_iter", 
        "rca_diis", 
        "gwh", 
        "gdm", 
        "rca", 
        "core+rca"
    ]
}</SCF Fix Strategy>
$end


$molecule
 0  1
 H           0.00000000        0.00000000       -0.86267400
 F           0.00000000        0.00000000        0.04381300
$end


$rem
         jobtype = opt
        exchange = b3lyp
           basis = 6-31g*
  max_scf_cycles = 200
   scf_algorithm = gdm
       scf_guess = sad
$end

