$comments
 quinoxaline_wfs_6_vinyl singlet neutral B3LYP 6-31+G* geometry optimization
$end


$molecule
 0  1
 C           2.37684152       -0.75604846       -0.00000401
 C           1.13738926       -1.41009025       -0.00000002
 C          -0.06735623       -0.71265021        0.00000374
 C          -0.04704346        0.70322512        0.00000370
 C           1.17649762        1.35476117       -0.00000017
 C           2.37900492        0.64176597       -0.00000394
 H           1.08020171       -2.49464743        0.00000045
 H           1.19530179        2.44167356       -0.00000015
 H           3.31389453        1.19823873       -0.00000680
 C          -2.33922425        0.72367575        0.00001121
 C          -2.36159602       -0.65532657        0.00001122
 H          -3.25212168        1.30756660        0.00001428
 H          -3.29300416       -1.20930092        0.00001427
 N          -1.18557376        1.42511611        0.00000744
 N          -1.23131564       -1.39428248        0.00000751
 C           3.67096299       -1.45918486       -0.00000737
 C           3.85955688       -2.78547818       -0.00001163
 H           3.05018369       -3.50625853       -0.00001322
 H           4.86723890       -3.19098788       -0.00001380
 H           4.55621250       -0.82453606       -0.00000635
$end


$rem
     jobtype = opt
    exchange = b3lyp
       basis = 6-31+g*
  mem_static = 3000
   mem_total = 28000
$end

