$molecule
 -1  2
 C           0.62598000       -0.33426000       -0.64130000
 C           0.00432000       -1.32250000        0.37722000
 H           0.89858000       -0.93181000       -1.52615000
 C          -1.46053000       -1.63063000        0.04823000
 H           0.58378000       -2.25941000        0.36787000
 H           0.07046000       -0.92272000        1.39672000
 H          -1.78991000       -2.53282000        0.58916000
 H          -1.56390000       -1.86459000       -1.01978000
 C          -0.38146000        0.71452000       -1.17198000
 H           0.14167000        1.64834000       -1.41093000
 H          -0.82807000        0.35178000       -2.10489000
 C          -2.39622000       -0.48145000        0.43453000
 H          -3.38681000       -0.62230000       -0.01916000
 H          -2.52431000       -0.45859000        1.52430000
 S          -1.74966000        1.18990000       -0.03475000
 N           1.89226000        0.30196000       -0.22497000
 C           2.99895000       -0.63505000       -0.11599000
 H           3.05228000       -1.26242000       -1.01625000
 H           3.94340000       -0.07700000       -0.03384000
 H           2.93295000       -1.30899000        0.76201000
 C           1.82245000        1.18277000        0.93354000
 H           2.75550000        1.76325000        0.99577000
 H           0.98642000        1.88146000        0.83291000
 H           1.70068000        0.64878000        1.89708000
$end


$rem
    jobtype = freq
   exchange = b3lyp
      basis = 6-31+g*
  mem_total = 2000
    xc_grid = 000128000302
$end

