$molecule
 0  2
 N           0.07199000       -0.70098000        0.42826000
 S          -1.28271000        0.02667000        0.86142000
 O          -1.71718000       -0.42130000        2.17028000
 O          -1.28161000        1.51716000        0.61338000
 C          -3.91578000       -1.46625000       -1.16155000
 F          -5.09495000       -0.90977000       -0.87794000
 F          -4.01825000       -2.79104000       -1.10925000
 F          -3.53548000       -1.09378000       -2.39348000
 S           1.14278000       -0.18806000       -0.65565000
 O           1.11881000        1.30676000       -0.88415000
 O           1.24678000       -1.01771000       -1.84432000
 C           2.73131000       -0.42926000        0.33210000
 F           3.76504000       -0.10500000       -0.44831000
 F           2.71734000        0.37237000        1.40331000
 F           2.84104000       -1.69637000        0.71989000
 Mg         -0.03984000        2.85181000       -0.26807000
$end


$rem
     jobtype = freq
    exchange = b3lyp
       basis = 6-31+g*
  mem_static = 100
   mem_total = 2500
$end


@@@


$molecule
 read
$end


$rem
           jobtype = ts
          exchange = b3lyp
             basis = 6-31+g*
  geom_opt_hessian = read
        mem_static = 100
         mem_total = 2500
$end


@@@


$molecule
 read
$end


$rem
     jobtype = freq
    exchange = b3lyp
       basis = 6-31+g*
  mem_static = 100
   mem_total = 2500
$end

