$molecule
 -1 2
 S      1.1727440742     -0.0357153007     -0.2082361994
 C      0.6717261235      1.3714384481      0.8778158290
 N      0.1918588951      0.0484677162     -1.4760802246
 O      1.0420711044     -1.2500426616      0.5950541982
 O      2.4978242037      0.3417473216     -0.6603358729
 F     -0.5327102037      1.2664499563      1.4063749187
 F      1.5654944785      1.6555947993      1.8236270324
 S     -1.3383450195     -0.4072105009     -1.5211459498
 C     -2.1754846503      1.2649991007     -1.7329921524
 O     -1.6219670274     -1.0975866895     -2.7776883124
 O     -1.8924433407     -0.9474578508     -0.2890597091
 F     -1.7764402596      1.8596758148     -2.8561471462
 F     -3.5035603664      1.1035525720     -1.7989533106
 F     -1.8958782388      2.0715841629     -0.6963423133
$end

$rem
   job_type = opt
   basis = 6-311++g*
   max_scf_cycles = 200
   gen_scfman = true
   scf_algorithm = gdm
   method = wb97xd
   geom_opt_max_cycles = 200
   solvent_method = pcm
   xc_grid = 3
$end

$pcm
   heavypoints 194
   hpoints 194
   radii uff
   theory cpcm
   vdwscale 1.1
$end

$solvent
   dielectric 3.0
$end
