$molecule
 -1 2
 S      1.1836851906      0.0036823011     -0.2156229670
 C      0.7914028251      1.3007878182      1.0190606134
 N      0.1260353797      0.2422281653     -1.3784218087
 O      1.0599531297     -1.2766256490      0.4664931059
 O      2.4907585442      0.3965250257     -0.7046703225
 F     -0.3953071694      1.1972701760      1.5859350494
 F      1.7288513135      1.4517353027      1.9420684929
 S     -1.3584264209     -0.3309517459     -1.4537960934
 C     -2.2548347175      1.2575259789     -1.8595776687
 O     -1.5498994398     -1.1520692556     -2.6349854392
 O     -1.9465765276     -0.7818113561     -0.2039704867
 F     -1.8079427859      1.7890316338     -2.9926260463
 F     -3.5554137890      0.9985341137     -2.0001898186
 F     -2.1073957597      2.1496343795     -0.8838058229
$end

$rem
   job_type = freq
   basis = 6-311++g*
   max_scf_cycles = 200
   gen_scfman = true
   scf_algorithm = gdm
   method = wb97xd
   geom_opt_max_cycles = 200
   solvent_method = pcm
   xc_grid = 3
$end

$pcm
   heavypoints 194
   hpoints 194
   radii uff
   theory cpcm
   vdwscale 1.1
$end

$solvent
   dielectric 3.0
$end
