$molecule
 -1 2
 S      1.1854559997      0.0012761046     -0.2164126437
 C      0.7977549593      1.2875388306      1.0307693839
 N      0.1235733902      0.2515479080     -1.3726490006
 O      1.0629899584     -1.2851093533      0.4545363844
 O      2.4913440325      0.3979010988     -0.7055700331
 F     -0.3882459608      1.1818754198      1.5985834284
 F      1.7370245173      1.4277686078      1.9537049564
 S     -1.3575628794     -0.3301987731     -1.4516231048
 C     -2.2577921251      1.2532028886     -1.8680135611
 O     -1.5420864934     -1.1582468505     -2.6291937790
 O     -1.9482343199     -0.7774447153     -0.2016128715
 F     -1.8078818254      1.7820760252     -3.0010063902
 F     -3.5566297731      0.9882827510     -2.0135171376
 F     -2.1185529377      2.1496082868     -0.8950624379
$end

$rem
   job_type = freq
   basis = 6-311++g*
   max_scf_cycles = 200
   gen_scfman = true
   scf_algorithm = gdm
   method = wb97xd
   geom_opt_max_cycles = 200
   solvent_method = pcm
   xc_grid = 3
$end

$pcm
   heavypoints 194
   hpoints 194
   radii uff
   theory cpcm
   vdwscale 1.1
$end

$solvent
   dielectric 3.0
$end
