$molecule
 0 2
 O      1.0356834917      0.4377997854      0.0513938877
 O     -1.1135676174      0.4722969601      0.0245743072
 O     -0.0564623298     -1.5319754974     -0.0526866300
 C      2.2944724065     -0.2589630232      0.0307228727
 C     -2.3578676766     -0.1218817834     -0.0076438994
 C      3.3775037656      0.7448287452     -0.0268202076
 C     -3.4454470492      0.6285851747      0.0032964361
 C     -0.0399991529     -0.3326902766      0.0022872150
 H      2.3688844067     -0.8959558976      0.9193186798
 H      2.2996927594     -0.9287995575     -0.8430483982
 H     -2.3425028210     -1.2046205925     -0.0409751235
 H      4.3708668091      0.4694128300      0.3350005963
 H      3.2332691451      1.6870102146     -0.6054556640
 H     -4.4177941269      0.1537420073     -0.0201000601
 H     -3.3938803092      1.7110033390      0.0368497488
$end

$rem
   job_type = opt
   basis = 6-311++g*
   max_scf_cycles = 200
   gen_scfman = true
   scf_algorithm = gdm
   method = wb97xd
   geom_opt_max_cycles = 200
$end
