$molecule
 0 2
 O      1.0366941323      0.4384166950      0.0181650919
 O     -1.1125165058      0.4736426978      0.0038702618
 O     -0.0569693383     -1.5324780825      0.0028343670
 C      2.2939660998     -0.2589300613      0.0151339656
 C     -2.3570207759     -0.1207198555     -0.0046998492
 C      3.3787341383      0.7411961705     -0.0251810795
 C     -3.4446880554      0.6294083941     -0.0065574267
 C     -0.0397120877     -0.3324024211      0.0078641725
 H      2.3541760776     -0.8966594678      0.9029819696
 H      2.3127988417     -0.9286748174     -0.8565919051
 H     -2.3419088604     -1.2034174472     -0.0095839294
 H      4.3825752790      0.4488370474      0.2545589654
 H      3.2131235656      1.7113034705     -0.4752625389
 H     -4.4167020231      0.1541791673     -0.0133655010
 H     -3.3934061092      1.7119110316     -0.0010964646
$end

$rem
   job_type = freq
   basis = 6-311++g*
   max_scf_cycles = 200
   gen_scfman = true
   scf_algorithm = gdm
   method = wb97xd
   geom_opt_max_cycles = 200
$end
