Eu4 In32 Rh8                            
    1.000000000000000     
     4.3643999999999998    0.0000000000000000    0.0000000000000000
     0.0000000000000000   13.8170000000000002    0.0000000000000000
     0.0000000000000000    0.0000000000000000   16.1179999999999986
   Eu   In   Rh
     4    32     8
Direct
  0.5000000000000000  0.1568299999999994  0.6805700000000030
  0.5000000000000000  0.6568299999999994  0.8194299999999970
  0.5000000000000000  0.8431700000000006  0.3194299999999970
  0.5000000000000000  0.3431700000000006  0.1805700000000030
  0.0000000000000000  0.0200000000000031  0.3662599999999969
  0.0000000000000000  0.1670400000000001  0.1224899999999991
  0.0000000000000000  0.4799999999999969  0.8662599999999969
  0.0000000000000000  0.5200000000000031  0.1337400000000031
  0.0000000000000000  0.2401899999999983  0.3227499999999992
  0.5000000000000000  0.1602900000000034  0.9555500000000023
  0.0000000000000000  0.3304800000000014  0.0116099999999975
  0.5000000000000000  0.1006199999999993  0.2464200000000005
  0.5000000000000000  0.3397099999999966  0.4555500000000023
  0.0000000000000000  0.2598100000000017  0.8227499999999992
  0.5000000000000000  0.6602900000000034  0.5444499999999977
  0.0000000000000000  0.7401899999999983  0.1772500000000008
  0.0000000000000000  0.7598100000000017  0.6772500000000008
  0.0000000000000000  0.3329599999999999  0.6224899999999991
  0.5000000000000000  0.8993800000000007  0.7535799999999995
  0.0000000000000000  0.1695199999999986  0.5116099999999975
  0.5000000000000000  0.8397099999999966  0.0444499999999977
  0.5000000000000000  0.6006199999999993  0.2535799999999995
  0.0000000000000000  0.6695199999999986  0.9883900000000025
  0.0000000000000000  0.0000000000000000  0.0000000000000000
  0.0000000000000000  0.9799999999999969  0.6337400000000031
  0.5000000000000000  0.3993800000000007  0.7464200000000005
  0.0000000000000000  0.5504400000000018  0.6837900000000019
  0.0000000000000000  0.8329599999999999  0.8775100000000009
  0.0000000000000000  0.8304800000000014  0.4883900000000025
  0.0000000000000000  0.0504400000000018  0.8162099999999981
  0.0000000000000000  0.9495599999999982  0.1837900000000019
  0.0000000000000000  0.6670400000000001  0.3775100000000009
  0.0000000000000000  0.5000000000000000  0.5000000000000000
  0.0000000000000000  0.4495599999999982  0.3162099999999981
  0.5000000000000000  0.0000000000000000  0.5000000000000000
  0.5000000000000000  0.5000000000000000  0.0000000000000000
  0.5000000000000000  0.0344800000000021  0.0952399999999969
  0.5000000000000000  0.9655199999999979  0.9047600000000031
  0.5000000000000000  0.5344800000000021  0.4047600000000031
  0.5000000000000000  0.4655199999999979  0.5952399999999969
  0.5000000000000000  0.1535399999999996  0.4035599999999988
  0.5000000000000000  0.3464600000000004  0.9035599999999988
  0.5000000000000000  0.8464600000000004  0.5964400000000012
  0.5000000000000000  0.6535399999999996  0.0964400000000012
 
  0.00000000E+00  0.00000000E+00  0.00000000E+00
  0.00000000E+00  0.00000000E+00  0.00000000E+00
  0.00000000E+00  0.00000000E+00  0.00000000E+00
  0.00000000E+00  0.00000000E+00  0.00000000E+00
  0.00000000E+00  0.00000000E+00  0.00000000E+00
  0.00000000E+00  0.00000000E+00  0.00000000E+00
  0.00000000E+00  0.00000000E+00  0.00000000E+00
  0.00000000E+00  0.00000000E+00  0.00000000E+00
  0.00000000E+00  0.00000000E+00  0.00000000E+00
  0.00000000E+00  0.00000000E+00  0.00000000E+00
  0.00000000E+00  0.00000000E+00  0.00000000E+00
  0.00000000E+00  0.00000000E+00  0.00000000E+00
  0.00000000E+00  0.00000000E+00  0.00000000E+00
  0.00000000E+00  0.00000000E+00  0.00000000E+00
  0.00000000E+00  0.00000000E+00  0.00000000E+00
  0.00000000E+00  0.00000000E+00  0.00000000E+00
  0.00000000E+00  0.00000000E+00  0.00000000E+00
  0.00000000E+00  0.00000000E+00  0.00000000E+00
  0.00000000E+00  0.00000000E+00  0.00000000E+00
  0.00000000E+00  0.00000000E+00  0.00000000E+00
  0.00000000E+00  0.00000000E+00  0.00000000E+00
  0.00000000E+00  0.00000000E+00  0.00000000E+00
  0.00000000E+00  0.00000000E+00  0.00000000E+00
  0.00000000E+00  0.00000000E+00  0.00000000E+00
  0.00000000E+00  0.00000000E+00  0.00000000E+00
  0.00000000E+00  0.00000000E+00  0.00000000E+00
  0.00000000E+00  0.00000000E+00  0.00000000E+00
  0.00000000E+00  0.00000000E+00  0.00000000E+00
  0.00000000E+00  0.00000000E+00  0.00000000E+00
  0.00000000E+00  0.00000000E+00  0.00000000E+00
  0.00000000E+00  0.00000000E+00  0.00000000E+00
  0.00000000E+00  0.00000000E+00  0.00000000E+00
  0.00000000E+00  0.00000000E+00  0.00000000E+00
  0.00000000E+00  0.00000000E+00  0.00000000E+00
  0.00000000E+00  0.00000000E+00  0.00000000E+00
  0.00000000E+00  0.00000000E+00  0.00000000E+00
  0.00000000E+00  0.00000000E+00  0.00000000E+00
  0.00000000E+00  0.00000000E+00  0.00000000E+00
  0.00000000E+00  0.00000000E+00  0.00000000E+00
  0.00000000E+00  0.00000000E+00  0.00000000E+00
  0.00000000E+00  0.00000000E+00  0.00000000E+00
  0.00000000E+00  0.00000000E+00  0.00000000E+00
  0.00000000E+00  0.00000000E+00  0.00000000E+00
  0.00000000E+00  0.00000000E+00  0.00000000E+00
